!BIOSYM archive 3
PBC=ON
Materials Studio Generated CAR File
!DATE Mon Aug 26 18:43:02 2013
PBC   40.3148   41.4320   53.6079   90.0000   90.0000   90.0000 (P1)
Si1     15.599077875   20.137934955   18.299446573 XXXX 1      sc4     Si  1.100
Si2     14.390763813    7.019158593   15.896755123 XXXX 1      sc4     Si  1.100
Si3     18.730529006   14.051616887   21.601054110 XXXX 1      sc4     Si  1.100
Si4     17.048313921   14.428979713   16.223983822 XXXX 1      sc4     Si  1.100
Si5      8.561891657    2.245315388   16.972848969 XXXX 1      sc4     Si  1.100
Si6     17.834976666    2.048152961   13.682573120 XXXX 1      sc4     Si  1.100
Si7     13.848732002    2.664876305   21.355414127 XXXX 1      sc4     Si  1.100
O1       8.651430911   19.837510613   15.808060356 XXXX 1      oc23    O  -0.550
O2      14.088644747    6.011449675   10.427047969 XXXX 1      oc23    O  -0.550
O3      12.309351759   12.843460439    6.139313109 XXXX 1      oc23    O  -0.550
O4       8.161404905    3.137184565   11.290411289 XXXX 1      oc23    O  -0.550
O5      16.451454043   17.898825055   12.270090806 XXXX 1      oc23    O  -0.550
O6       1.908791918   18.832826880   20.188831412 XXXX 1      oc23    O  -0.550
O7       3.870114085    5.164455878   16.580864451 XXXX 1      oc23    O  -0.550
O8       8.052192114    7.959375013    8.693451149 XXXX 1      oc23    O  -0.550
O9      18.011837253   17.693033442   14.184783035 XXXX 1      oc23    O  -0.550
O10     16.429643684   14.295112185    8.361078303 XXXX 1      oc23    O  -0.550
O11      9.608262033    2.093993314    2.194770827 XXXX 1      oc23    O  -0.550
O12     12.125758111   10.169770967   19.890616507 XXXX 1      oc23    O  -0.550
O13     19.150769793    2.230130502   12.715547299 XXXX 1      oc23    O  -0.550
O14      0.415040657    0.629861483   11.601704846 XXXX 1      oc23    O  -0.550
O15      1.982830055   13.204457631    7.332148228 XXXX 1      oc23    O  -0.550
Si8      7.454243099    7.614660726   10.055200309 XXXX 1      sc4     Si  1.100
Si9     13.221755974    4.632634818   10.402731909 XXXX 1      sc4     Si  1.100
Si10    14.002169853    6.735556749    3.343482880 XXXX 1      sc4     Si  1.100
Si11    14.447204259    7.568380950   10.013060374 XXXX 1      sc4     Si  1.100
Si12    17.770755474    0.950578219   16.828581370 XXXX 1      sc4     Si  1.100
Si13    16.802958498    5.717075703    3.887620603 XXXX 1      sc4     Si  1.100
Si14     2.470715484    5.098330271   12.240274240 XXXX 1      sc4     Si  1.100
Si15    11.050160076    9.260794831    6.241655110 XXXX 1      sc4     Si  1.100
O16     13.507185363    2.614660702   19.775929074 XXXX 1      oc23    O  -0.550
O17     18.122823421    4.290530833    6.760467084 XXXX 1      oc23    O  -0.550
O18     10.218789280   17.266697191   10.458989314 XXXX 1      oc23    O  -0.550
O19     18.353424742    4.432891106   19.264819710 XXXX 1      oc23    O  -0.550
O20     15.269706975    8.615408630    6.413535278 XXXX 1      oc23    O  -0.550
O21     17.677184673    3.734604604   21.816405432 XXXX 1      oc24    O  -0.675
O22     20.438222549    2.569785785   16.315440802 XXXX 1      oc23    O  -0.550
O23     17.186472626    2.364788592   17.648011006 XXXX 1      oc23    O  -0.550
O24      3.001467556    3.793802846   11.422143042 XXXX 1      oc23    O  -0.550
O25     10.613632106   10.809274109    6.301957401 XXXX 1      oc23    O  -0.550
O26     10.188351135    2.539320936    6.665688597 XXXX 1      oc23    O  -0.550
O27     12.687424411    9.094652899    6.294539824 XXXX 1      oc23    O  -0.550
O28      8.934883875    2.058631215    4.751432098 XXXX 1      oc23    O  -0.550
O29      0.058981329   16.926582420   15.384913344 XXXX 1      oc23    O  -0.550
Si16    17.510241053   12.968626547   11.601916972 XXXX 1      sc4     Si  1.100
Si17     1.442470846    8.042652802    3.667712967 XXXX 1      sc4     Si  1.100
Si18    13.808053694   17.581705395   18.131546783 XXXX 1      sc4     Si  1.100
Si19    14.695946637   11.825683212   11.469028552 XXXX 1      sc4     Si  1.100
Si20     0.604044393   11.900716446   16.173604738 XXXX 1      sc4     Si  1.100
Si21     2.954178437   12.743857762    6.211670523 XXXX 1      sc4     Si  1.100
Si22     4.205436187   19.367382029   21.650465785 XXXX 1      sc4     Si  1.100
Si23    11.362760801    1.272666360   16.638018907 XXXX 1      sc4     Si  1.100
O30      3.356040276   14.538525987   16.413531737 XXXX 1      oc23    O  -0.550
O31     14.198300883   10.981755347    5.272954287 XXXX 1      oc23    O  -0.550
O32     19.597337280    6.226895950    7.193928863 XXXX 1      oc23    O  -0.550
O33      2.420382431   16.752775040   13.780191961 XXXX 1      oc23    O  -0.550
O34     17.082783011    6.726400316    7.285588735 XXXX 1      oc23    O  -0.550
O35     17.059401124   16.764748599    4.291857782 XXXX 1      oc23    O  -0.550
O36      5.283816235   19.006095901    4.190131504 XXXX 1      oc23    O  -0.550
O37     -0.369162520   20.190180519    3.697269915 XXXX 1      oc23    O  -0.550
O38      0.900986982    5.104876401   12.517288491 XXXX 1      oc23    O  -0.550
O39     14.365728697   16.667467289   14.686521558 XXXX 1      oc23    O  -0.550
O40     14.679780803    5.399955426   15.969467608 XXXX 1      oc23    O  -0.550
O41     18.960363786    6.452742071   12.357085749 XXXX 1      oc23    O  -0.550
O42      7.908348635   14.614055599   14.344136568 XXXX 1      oc23    O  -0.550
O43      6.020488047    1.635631311   10.469164334 XXXX 1      oc23    O  -0.550
O44     10.221288346    4.139888345   17.507567306 XXXX 1      oc23    O  -0.550
Si24    13.569672828   18.272458877   22.501741081 XXXX 1      sc4     Si  1.100
Si25    16.296765458    9.209377797   16.532680504 XXXX 1      sc4     Si  1.100
Si26     0.242734482   19.151770295    4.719844648 XXXX 1      sc4     Si  1.100
Si27    14.853577632    9.139274997   20.236212587 XXXX 1      sc4     Si  1.100
Si28    13.902108689    4.018015984   16.070957488 XXXX 1      sc4     Si  1.100
Si29     1.791157394   14.615464471   16.446700811 XXXX 1      sc4     Si  1.100
Si30    14.965007143    1.339541781    2.295175802 XXXX 1      sc4     Si  1.100
Si31    14.322268977   14.063797887    2.293121380 XXXX 1      sc4     Si  1.100
O45     14.002895543   12.747544784    3.156295440 XXXX 1      oc23    O  -0.550
O46      9.036235422    8.032088115   15.949873202 XXXX 1      oc23    O  -0.550
O47     11.618356388    9.159244923    2.311841953 XXXX 1      oc24    O  -0.675
O48     -0.196332878    4.263475800   21.081279586 XXXX 1      oc23    O  -0.550
O49     13.058803651    5.985844879   20.853652387 XXXX 1      oc23    O  -0.550
O50     -0.103487768   14.102453579   20.717931044 XXXX 1      oc23    O  -0.550
O51      5.777470692   16.235041155    8.146865181 XXXX 1      oc23    O  -0.550
O52     16.183925416   10.249610541   20.221645887 XXXX 1      oc23    O  -0.550
O53      5.495750854   14.218960249   14.889029925 XXXX 1      oc23    O  -0.550
O54      8.549112178   18.844220098   11.340837864 XXXX 1      oc23    O  -0.550
O55      8.744235171   12.579703810   20.776030394 XXXX 1      oc23    O  -0.550
O56     10.126709508   17.098110416   19.144631772 XXXX 1      oc23    O  -0.550
O57      1.259054790   15.906941926   17.143628469 XXXX 1      oc23    O  -0.550
O58     14.050789904   11.445006265   10.059662346 XXXX 1      oc23    O  -0.550
Si32    10.090386544   16.689136258    8.951367186 XXXX 1      sc4     Si  1.100
Si33    13.052515135   11.252016741   22.090373930 XXXX 1      sc4     Si  1.100
Si34    16.705356752    8.671922175   11.358496399 XXXX 1      sc4     Si  1.100
Si35     7.615260449   10.966466432    7.845506024 XXXX 1      sc4     Si  1.100
Si36     8.133546927   10.701675066    2.808528145 XXXX 1      sc4     Si  1.100
Si37    13.284727633   13.471196228    7.304128051 XXXX 1      sc4     Si  1.100
Si38    14.107995689    9.735398219    6.361163576 XXXX 1      sc4     Si  1.100
Si39     7.322131413   15.618948007    8.254259766 XXXX 1      sc4     Si  1.100
O59     12.286937059    3.069314846    5.259852419 XXXX 1      oc23    O  -0.550
O60     13.915895604    9.017216187   18.745209822 XXXX 1      oc23    O  -0.550
O61      2.509965990   11.289471002    5.795089990 XXXX 1      oc23    O  -0.550
O62      7.788130341   14.991460407    6.836661535 XXXX 1      oc23    O  -0.550
O63      2.550901563   14.420320275   12.919070916 XXXX 1      oc23    O  -0.550
O64     19.160405615   10.327958514    9.585238496 XXXX 1      oc23    O  -0.550
O65      1.802175512   13.983419336   19.064931436 XXXX 1      oc23    O  -0.550
O66     18.211072893   17.065503859   19.527244043 XXXX 1      oc23    O  -0.550
O67     17.077663530    5.372858411   11.471837904 XXXX 1      oc23    O  -0.550
O68     14.620033901   12.661241809    7.494610483 XXXX 1      oc23    O  -0.550
O69     17.582403988   13.010928513   15.844156982 XXXX 1      oc23    O  -0.550
O70     17.169096908   14.400723249   10.935797561 XXXX 1      oc23    O  -0.550
O71     16.238430287   14.468961547    5.121816333 XXXX 1      oc23    O  -0.550
O72     13.512789039   14.947086498    6.732137645 XXXX 1      oc23    O  -0.550
O73     13.342699959    9.981587166   14.809518145 XXXX 1      oc23    O  -0.550
Si40    -0.495711381   11.243647474   18.879373462 XXXX 1      sc4     Si  1.100
Si41     2.544810089   12.943228574   12.321673697 XXXX 1      sc4     Si  1.100
Si42     0.637025908   14.981267385   19.490037889 XXXX 1      sc4     Si  1.100
Si43    15.157954267   17.651435294    9.142496373 XXXX 1      sc4     Si  1.100
Si44    13.119154895    9.961989523   13.213767975 XXXX 1      sc4     Si  1.100
Si45    18.153221916   17.504890388    5.292903293 XXXX 1      sc4     Si  1.100
Si46    -0.072686778    5.994794488   13.345877896 XXXX 1      sc4     Si  1.100
Si47    18.233649792   12.408175814   14.508470669 XXXX 1      sc4     Si  1.100
O74      8.946736417   10.519084770   16.764344785 XXXX 1      oc23    O  -0.550
O75     16.300958602   11.994767599   11.367538321 XXXX 1      oc23    O  -0.550
O76      6.362559129    5.299524219    7.321250819 XXXX 1      oc23    O  -0.550
O77     13.125968454   14.857344690   15.853529229 XXXX 1      oc23    O  -0.550
O78      0.917677259    2.836736145   10.527097993 XXXX 1      oc23    O  -0.550
O79     15.674910113   14.677778345   15.746750619 XXXX 1      oc23    O  -0.550
O80      2.783727413   12.921642335    2.362929531 XXXX 1      oc23    O  -0.550
O81     12.968659454   14.840275237    2.120123526 XXXX 1      oc23    O  -0.550
O82      4.139239471    7.246454333   14.770517889 XXXX 1      oc23    O  -0.550
O83      5.480915053    4.830638122    4.822845794 XXXX 1      oc23    O  -0.550
O84     12.342208471   13.495973111   13.718362990 XXXX 1      oc23    O  -0.550
O85     10.329734597   12.740418930    9.718268685 XXXX 1      oc23    O  -0.550
O86     17.939311473   13.245847102   13.163152492 XXXX 1      oc23    O  -0.550
O87     12.244687223   17.744366512   17.832104852 XXXX 1      oc23    O  -0.550
O88     17.315399204    8.948977889   15.339089872 XXXX 1      oc23    O  -0.550
O89      1.346207242   16.326357294   19.800221916 XXXX 1      oc23    O  -0.550
Si48     7.124186157   15.724225684   19.821279747 XXXX 1      sc4     Si  1.100
Si49     3.286416655    1.613286923   14.140731151 XXXX 1      sc4     Si  1.100
Si50    10.567914816    4.040020502   19.021775899 XXXX 1      sc4     Si  1.100
Si51    15.468740766    1.075955550   11.920293009 XXXX 1      sc4     Si  1.100
Si52    18.623573784   16.771627499   15.308423395 XXXX 1      sc4     Si  1.100
Si53    10.956630125   18.328267986   18.592656286 XXXX 1      sc4     Si  1.100
Si54    13.060456879   16.004057776   20.697250327 XXXX 1      sc4     Si  1.100
Si55     9.977787398   17.791060552    2.501625564 XXXX 1      sc4     Si  1.100
O90      2.365014150   17.837796576   15.969042653 XXXX 1      oc23    O  -0.550
O91      5.559045109   15.780449675   17.026745900 XXXX 1      oc23    O  -0.550
O92     16.803079847    1.681972979   12.444977743 XXXX 1      oc23    O  -0.550
O93      8.603617650    6.804209312    6.475066859 XXXX 1      oc23    O  -0.550
O94     15.433304490    2.432596264   21.634695982 XXXX 1      oc23    O  -0.550
O95      6.766674331    6.223996094    9.882319951 XXXX 1      oc23    O  -0.550
O96     19.210718543    5.786722873    9.797449436 XXXX 1      oc23    O  -0.550
O97     -0.452330958   15.357843663   18.373550719 XXXX 1      oc23    O  -0.550
O98     17.377645173   18.208695383   21.752970212 XXXX 1      oc23    O  -0.550
O99     12.461298581    5.686830026   13.409973064 XXXX 1      oc23    O  -0.550
O100    11.690036331   10.657343139    8.910785129 XXXX 1      oc23    O  -0.550
O101     1.060633450   12.652168723   11.843284178 XXXX 1      oc23    O  -0.550
O102    13.140804256   16.763506421   22.105979099 XXXX 1      oc23    O  -0.550
O103     8.545322128   17.029168299    2.773612812 XXXX 1      oc23    O  -0.550
O104     0.582834809   12.529032576    3.751638940 XXXX 1      oc23    O  -0.550
O105     5.390086016    7.908827874   21.362237343 XXXX 1      oc24    O  -0.675
Si56     1.842006480   13.592094973    3.477953276 XXXX 1      sc4     Si  1.100
Si57    19.304852835   15.801869221    7.621278471 XXXX 1      sc4     Si  1.100
Si58    17.917540763    9.503462216   14.036998293 XXXX 1      sc4     Si  1.100
Si59    10.881362581   12.247337217    5.676176919 XXXX 1      sc4     Si  1.100
Si60    10.692567751   12.254835972    2.680880964 XXXX 1      sc4     Si  1.100
Si61     0.886489771   19.987370874    7.658354641 XXXX 1      sc4     Si  1.100
Si62     3.139848233    6.463058570    9.673272259 XXXX 1      sc4     Si  1.100
Si63    18.214540347    5.862294467    6.520457680 XXXX 1      sc4     Si  1.100
O106     2.433972605    9.182073958    7.185401690 XXXX 1      oc23    O  -0.550
O107    14.859100808   10.359115451    2.806687607 XXXX 1      oc23    O  -0.550
O108     9.487962639   11.247541937    2.214908389 XXXX 1      oc23    O  -0.550
O109     8.204218833    1.002575363   20.475241832 XXXX 1      oc23    O  -0.550
O110    16.437626278    1.942990273    2.595018767 XXXX 1      oc23    O  -0.550
O111     8.508152124    6.786352077    3.967344861 XXXX 1      oc23    O  -0.550
O112     1.668681080   17.550796646    1.903615536 XXXX 1      oc23    O  -0.550
O113    14.070584189   10.318429181    7.829804466 XXXX 1      oc23    O  -0.550
O114    14.765288511   13.735698658    0.770861843 XXXX 1      oc24    O  -0.675
O115     8.108309964    6.012071382   18.229023502 XXXX 1      oc23    O  -0.550
O116    16.818841985    5.733441337   14.167620164 XXXX 1      oc23    O  -0.550
O117    11.044435052   11.870678210    4.147803364 XXXX 1      oc23    O  -0.550
O118     1.329138050   14.783222716   14.931524107 XXXX 1      oc23    O  -0.550
O119    14.732068955   18.541186688   21.477420089 XXXX 1      oc23    O  -0.550
Si64    16.901124937   15.192115379    9.543830273 XXXX 1      sc4     Si  1.100
Si65    -0.169443888   20.264798871   12.871713663 XXXX 1      sc4     Si  1.100
Si66    10.997589578    4.108068645   16.084886050 XXXX 1      sc4     Si  1.100
Si67    13.178337104   16.025519304    5.519562381 XXXX 1      sc4     Si  1.100
Si68     0.683037183    1.392698914   15.245886633 XXXX 1      sc4     Si  1.100
Si69    16.609326534   19.489606916    7.245512018 XXXX 1      sc4     Si  1.100
Si70    11.091362226   19.649907153   21.364432479 XXXX 1      sc4     Si  1.100
O120    17.166476493    8.714472947   12.878890774 XXXX 1      oc23    O  -0.550
O121     5.624718283    1.555054271   19.770688889 XXXX 1      oc23    O  -0.550
O122    15.850683366   16.361283982    9.721078038 XXXX 1      oc23    O  -0.550
O123     1.154566946   19.458117826   13.132509936 XXXX 1      oc23    O  -0.550
O124     0.614215847    7.316972015   13.711256939 XXXX 1      oc23    O  -0.550
O125     3.558267285   18.906078342   13.992686088 XXXX 1      oc23    O  -0.550
O126     6.051248186   17.410176164    2.011668310 XXXX 1      oc23    O  -0.550
O127     8.452356269   16.699493504    8.572460790 XXXX 1      oc23    O  -0.550
O128    18.747098535   16.771543535   11.553922285 XXXX 1      oc23    O  -0.550
O129     4.569882020   12.690078615    6.270030831 XXXX 1      oc23    O  -0.550
O130    15.361020206   20.229954912   12.480177318 XXXX 1      oc23    O  -0.550
O131    16.074349779   18.210808074    7.989823400 XXXX 1      oc23    O  -0.550
O132     1.627813991   18.908563933    3.978392307 XXXX 1      oc23    O  -0.550
O133    13.018932734    8.440938796   12.649941567 XXXX 1      oc23    O  -0.550
O134    18.119840161   11.703997919   18.865728438 XXXX 1      oc23    O  -0.550
O135     0.072887913   17.225265737   21.581624339 XXXX 1      oc23    O  -0.550
Si71     2.474460779   16.223233055    2.200319175 XXXX 1      sc4     Si  1.100
Si72     4.930779900    8.591999871   14.440787298 XXXX 1      sc4     Si  1.100
Si73    17.363374064    3.242094281    2.503940308 XXXX 1      sc4     Si  1.100
Si74    18.472393503   17.043917620   21.220023463 XXXX 1      sc4     Si  1.100
Si75     4.589595806    4.290448104   17.790059547 XXXX 1      sc4     Si  1.100
Si76    18.633290105    4.585485147   20.891802731 XXXX 1      sc4     Si  1.100
Si77    -0.308327082    1.872050454   11.123834209 XXXX 1      sc4     Si  1.100
Si78     4.410960942    1.374729932   16.989469388 XXXX 1      sc4     Si  1.100
O136    17.143739798    8.991279855    2.994416796 XXXX 1      oc23    O  -0.550
O137     2.352685825   13.212784916   21.392383883 XXXX 1      oc24    O  -0.675
O138     1.051417543    2.169068067    3.375282808 XXXX 1      oc23    O  -0.550
O139     8.473925132    1.090808900    7.052109245 XXXX 1      oc23    O  -0.550
O140    16.179449925   12.098222756    4.146622775 XXXX 1      oc23    O  -0.550
O141     8.381966709    3.880101499   16.630251502 XXXX 1      oc23    O  -0.550
O142    12.381596395   19.352840149   22.245124009 XXXX 1      oc23    O  -0.550
O143    12.085282853    7.013440993   18.670703235 XXXX 1      oc23    O  -0.550
O144    14.111865637   14.802571553   20.622932296 XXXX 1      oc23    O  -0.550
O145    19.785647915   12.152913164   14.870261509 XXXX 1      oc23    O  -0.550
O146    19.263812884    0.424640565   17.453694297 XXXX 1      oc23    O  -0.550
O147     0.932017228   10.435059945   21.942872023 XXXX 1      oc24    O  -0.675
O148     2.809565113   -0.143438226    7.466618625 XXXX 1      oc23    O  -0.550
O149    10.221046849    6.257804699   12.484827912 XXXX 1      oc23    O  -0.550
O150     6.304949648    3.808942046    9.405393857 XXXX 1      oc23    O  -0.550
Si79     2.763618342   19.672446635   12.903277191 XXXX 1      sc4     Si  1.100
Si80     6.097731415    9.598341282    5.569634005 XXXX 1      sc4     Si  1.100
Si81     0.538653829    8.911440280   13.208975964 XXXX 1      sc4     Si  1.100
Si82     2.930489273    9.754415521    5.805381802 XXXX 1      sc4     Si  1.100
Si83     6.531962167    4.437904269    5.974131504 XXXX 1      sc4     Si  1.100
Si84    12.710605652    1.620815158    4.468775924 XXXX 1      sc4     Si  1.100
Si85     2.508639562    2.873391202   10.158012547 XXXX 1      sc4     Si  1.100
O151     1.709882930    6.947398732   18.257684103 XXXX 1      oc23    O  -0.550
O152    17.310521219    9.311797600    8.083586681 XXXX 1      oc23    O  -0.550
O153    10.748727052    3.802209157   12.195277462 XXXX 1      oc23    O  -0.550
O154     0.018142258    8.168233176    8.991052015 XXXX 1      oc23    O  -0.550
O155     2.944140121    2.189481584    6.502777773 XXXX 1      oc23    O  -0.550
O156    14.032808643   12.389034418   21.615761524 XXXX 1      oc23    O  -0.550
O157    10.011409448    1.662798245   17.363606463 XXXX 1      oc23    O  -0.550
O158    18.403696820    1.667455178    7.523400189 XXXX 1      oc23    O  -0.550
O159     7.862470347   18.954263985   13.737815275 XXXX 1      oc23    O  -0.550
O160    17.903914845    6.173117420    5.067471229 XXXX 1      oc23    O  -0.550
O161    11.327848368   19.316006977   19.829897064 XXXX 1      oc23    O  -0.550
O162    15.511796791    7.489411888    8.874901334 XXXX 1      oc23    O  -0.550
O163     0.102888561   11.935685116    6.377082382 XXXX 1      oc23    O  -0.550
O164     4.130329940    2.795171645   13.592084252 XXXX 1      oc23    O  -0.550
O165    13.202445883    3.970762902   11.935212901 XXXX 1      oc23    O  -0.550
O166     1.698292309    6.116769952    8.940129776 XXXX 1      oc23    O  -0.550
Si86     5.715829666    9.442267043   11.633716900 XXXX 1      sc4     Si  1.100
Si87    13.499524765    6.985018453   13.172595800 XXXX 1      sc4     Si  1.100
Si88     7.470409534    5.088262269   17.051463698 XXXX 1      sc4     Si  1.100
Si89    17.835702356    7.899960995   18.687701470 XXXX 1      sc4     Si  1.100
Si90    10.280268708   10.288100774   12.477367966 XXXX 1      sc4     Si  1.100
Si91     1.707113232   15.409218714   13.634979468 XXXX 1      sc4     Si  1.100
Si92     9.976134170    0.976150063    6.911028639 XXXX 1      sc4     Si  1.100
Si93     7.628967466   11.598926448   12.405033297 XXXX 1      sc4     Si  1.100
O167     6.502289962    8.311919590    4.702469299 XXXX 1      oc23    O  -0.550
O168     3.984741019   10.524553564    8.620195860 XXXX 1      oc23    O  -0.550
O169     8.167694022    7.080809396   13.698791801 XXXX 1      oc23    O  -0.550
O170     5.889828342   14.184033561   11.222869335 XXXX 1      oc23    O  -0.550
O171     6.409002109    8.481997967   15.048052077 XXXX 1      oc23    O  -0.550
O172    13.716781314   17.313598673    8.651594401 XXXX 1      oc23    O  -0.550
O173    12.827840686   17.423393136    6.211198131 XXXX 1      oc23    O  -0.550
O174     4.975166257   12.779282063    9.331595412 XXXX 1      oc23    O  -0.550
O175    17.344870162   15.050708348   17.735690522 XXXX 1      oc23    O  -0.550
O176    17.276495474    9.142009394   17.840273292 XXXX 1      oc23    O  -0.550
O177    16.630250205    6.895069821   18.356128934 XXXX 1      oc23    O  -0.550
O178     3.497891711   12.965891533   11.110590220 XXXX 1      oc23    O  -0.550
O179    15.248259461    8.149920310   11.180611201 XXXX 1      oc23    O  -0.550
O180    13.066101404    3.892771469   22.179659695 XXXX 1      oc23    O  -0.550
O181     1.834052421    1.989646807   14.453653470 XXXX 1      oc23    O  -0.550
O182    10.363236500   18.075035296   15.310689592 XXXX 1      oc23    O  -0.550
Si94    16.314383873    8.042073078    7.596771216 XXXX 1      sc4     Si  1.100
Si95     6.862099607   13.452552444   14.713812310 XXXX 1      sc4     Si  1.100
Si96     4.477601302    1.476731302   20.928984964 XXXX 1      sc4     Si  1.100
Si97    18.338467591   16.234337337   18.091933014 XXXX 1      sc4     Si  1.100
Si98    17.237228898    3.993015916   18.211742432 XXXX 1      sc4     Si  1.100
Si99     1.613465987   17.368910170   20.934958268 XXXX 1      sc4     Si  1.100
Si100   15.539614520    6.232530821   19.207900950 XXXX 1      sc4     Si  1.100
Si101   13.834096846   10.965389713   16.079669083 XXXX 1      sc4     Si  1.100
O183    12.996557682   10.738466256   17.411224037 XXXX 1      oc23    O  -0.550
O184    -0.096353415    8.496043469    3.526443276 XXXX 1      oc23    O  -0.550
O185    16.220167881   -0.184620256   22.096158678 XXXX 1      oc23    O  -0.550
O186     3.962116361    2.731279427   17.624214180 XXXX 1      oc23    O  -0.550
O187    14.851843905    6.413878938   12.531689148 XXXX 1      oc23    O  -0.550
O188     9.818947119   16.193402260   13.450767422 XXXX 1      oc23    O  -0.550
O189    11.791266528   10.743313960   12.783797747 XXXX 1      oc23    O  -0.550
O190    14.172257731    5.981784340   18.604601487 XXXX 1      oc23    O  -0.550
O191    10.867372617    6.721842782    2.927040181 XXXX 1      oc23    O  -0.550
O192    18.055377472   15.310403821   15.293031408 XXXX 1      oc23    O  -0.550
O193     4.272923286   19.212675297   20.036536790 XXXX 1      oc23    O  -0.550
O194    15.342797448   10.555295619   16.394574765 XXXX 1      oc23    O  -0.550
O195    12.607197181    1.106698068   17.676127748 XXXX 1      oc23    O  -0.550
O196     2.595372924    4.598121777    5.990680862 XXXX 1      oc23    O  -0.550
O197    15.463096241    7.858860459   16.634878877 XXXX 1      oc23    O  -0.550
Si102   18.710613371    9.565154384    3.218762548 XXXX 1      sc4     Si  1.100
Si103   16.982802346   13.075562519    5.125168138 XXXX 1      sc4     Si  1.100
Si104    5.940907210    5.271018950    8.923958410 XXXX 1      sc4     Si  1.100
Si105   -0.054746367   13.074774736   10.636638465 XXXX 1      sc4     Si  1.100
Si106   19.676837617   12.237268907    4.555369833 XXXX 1      sc4     Si  1.100
Si107    9.734245600    3.075513080   11.021966162 XXXX 1      sc4     Si  1.100
Si108   10.231649858   11.087365176    9.519703121 XXXX 1      sc4     Si  1.100
Si109    0.087790678    9.337070861    9.990467707 XXXX 1      sc4     Si  1.100
O198    10.571301772   15.195388753    8.861751622 XXXX 1      oc23    O  -0.550
O199     0.333348418   12.442688854    9.102126971 XXXX 1      oc23    O  -0.550
O200     9.985406546    8.845480749   13.066714945 XXXX 1      oc23    O  -0.550
O201    18.387046792   16.498838532    6.512716658 XXXX 1      oc23    O  -0.550
O202     7.724029897    3.285349489    3.304813302 XXXX 1      oc23    O  -0.550
O203     7.296128511   11.852697497   18.530094900 XXXX 1      oc23    O  -0.550
O204     5.990212102   12.275344257   20.595972925 XXXX 1      oc23    O  -0.550
O205     7.072059003   14.240588471   19.304551679 XXXX 1      oc23    O  -0.550
O206     1.935641560    9.754042620   13.337827655 XXXX 1      oc23    O  -0.550
O207    13.014135248    5.475071390    2.810157611 XXXX 1      oc23    O  -0.550
O208    15.271560849    7.458254951   20.333665385 XXXX 1      oc23    O  -0.550
O209    14.045910718    1.275935335    7.895361124 XXXX 1      oc23    O  -0.550
O210    12.624411902   13.501607364    8.780753025 XXXX 1      oc23    O  -0.550
O211    -0.431086494   14.265446849    7.335462744 XXXX 1      oc23    O  -0.550
O212    19.505620354    9.402161114   13.914662357 XXXX 1      oc23    O  -0.550
O213    17.021101735   12.525801185    6.591493779 XXXX 1      oc23    O  -0.550
Si110    2.717345070   10.666913836   14.393453262 XXXX 1      sc4     Si  1.100
Si111   12.942696801   14.094789365   12.309492097 XXXX 1      sc4     Si  1.100
Si112   17.767247170    4.855787598   15.069299168 XXXX 1      sc4     Si  1.100
Si113    4.432690802   16.478205534    9.130432973 XXXX 1      sc4     Si  1.100
Si114   16.067092876    5.422784461   12.749661266 XXXX 1      sc4     Si  1.100
Si115    4.567221055   13.790802713   10.449805975 XXXX 1      sc4     Si  1.100
Si116    0.440443010    9.424451172   20.733748690 XXXX 1      sc4     Si  1.100
Si117    7.416871248   18.401768871   12.422149029 XXXX 1      sc4     Si  1.100
O214     6.245283245    8.505820991   10.469919616 XXXX 1      oc23    O  -0.550
O215    10.610286001   18.559043923   12.695386519 XXXX 1      oc23    O  -0.550
O216     0.733386306   11.900468257   19.744271267 XXXX 1      oc23    O  -0.550
O217     5.025922529   10.666498954   10.896136301 XXXX 1      oc23    O  -0.550
O218    17.484882741   18.861621703    5.922029379 XXXX 1      oc23    O  -0.550
O219    13.656591067   17.078720831   19.582180145 XXXX 1      oc23    O  -0.550
O220     6.625572616   10.894706571    9.013408635 XXXX 1      oc23    O  -0.550
O221     3.443273300    8.055165339    9.400152617 XXXX 1      oc23    O  -0.550
O222     4.151293560    9.910034130   14.852130527 XXXX 1      oc23    O  -0.550
O223    14.562585418   16.273365929    4.709009680 XXXX 1      oc23    O  -0.550
O224    18.858528046   12.432247644   10.983556200 XXXX 1      oc23    O  -0.550
O225     3.783650905    1.051813107   15.505265917 XXXX 1      oc23    O  -0.550
O226     1.126975469   13.274187530   16.810686787 XXXX 1      oc23    O  -0.550
O227     4.220554335    4.819327326   19.293785660 XXXX 1      oc23    O  -0.550
O228    10.455516917    4.147549163    3.412488963 XXXX 1      oc23    O  -0.550
O229    13.331573107    0.536105054    5.469867871 XXXX 1      oc23    O  -0.550
Si118    5.233664905    8.371540432   19.783225088 XXXX 1      sc4     Si  1.100
Si119    4.113155769    5.611962868   14.979188116 XXXX 1      sc4     Si  1.100
Si120    4.246234942   12.426033049    2.327282486 XXXX 1      sc4     Si  1.100
Si121   17.987124133   17.870527844   12.549749774 XXXX 1      sc4     Si  1.100
Si122   15.662009885    9.113089859    2.200483810 XXXX 1      sc4     Si  1.100
Si123    3.840394122    0.880106532    6.808041653 XXXX 1      sc4     Si  1.100
Si124    3.266452662   17.538657628   14.757911333 XXXX 1      sc4     Si  1.100
Si125    0.102331405    3.344970022    3.626116539 XXXX 1      sc4     Si  1.100
O230    19.577743641   17.938103070    4.637642419 XXXX 1      oc23    O  -0.550
O231    18.700857402   19.314888276   12.378946353 XXXX 1      oc23    O  -0.550
O232     4.197776489   10.926899480   21.863975163 XXXX 1      oc24    O  -0.675
O233     4.996654020    0.287282363   21.891832288 XXXX 1      oc23    O  -0.550
O234     3.040129489   11.962699402   13.494252933 XXXX 1      oc23    O  -0.550
O235     0.508788638    3.333766959    7.234834209 XXXX 1      oc23    O  -0.550
O236    17.428079450    4.819782956   16.732308458 XXXX 1      oc23    O  -0.550
O237     8.356407151   14.847732010   11.828316443 XXXX 1      oc23    O  -0.550
O238     1.625673414    6.721635341    4.601404376 XXXX 1      oc23    O  -0.550
O239    -0.221328344    0.580076814   14.095002661 XXXX 1      oc23    O  -0.550
O240    14.617454336   16.493659909   17.244623035 XXXX 1      oc23    O  -0.550
O241    14.465266018    2.958993754   17.188696307 XXXX 1      oc23    O  -0.550
O242    40.487334804    0.255736454   20.518042770 XXXX 1      oc23    O  -0.550
O243    11.484471326    0.822528539    3.724230693 XXXX 1      oc23    O  -0.550
O244     0.779337132   18.696681203    8.565260461 XXXX 1      oc23    O  -0.550
Si126    1.427268144   17.303324157    8.877143961 XXXX 1      sc4     Si  1.100
Si127   10.041443897   20.464252412    4.115955594 XXXX 1      sc4     Si  1.100
Si128    4.713039758   15.184201741   15.898383886 XXXX 1      sc4     Si  1.100
Si129   18.264692278    6.264806459   10.975836285 XXXX 1      sc4     Si  1.100
Si130    2.157884827   18.993500018    2.420391447 XXXX 1      sc4     Si  1.100
Si131   11.328735055    5.291403141    2.587866281 XXXX 1      sc4     Si  1.100
Si132    7.104552870    1.012054997   19.293927781 XXXX 1      sc4     Si  1.100
Si133   18.637522898    0.437956820    8.548853048 XXXX 1      sc4     Si  1.100
O245     2.336878481    9.086946086    4.398282497 XXXX 1      oc23    O  -0.550
O246     4.421926495    2.967168236   21.454684949 XXXX 1      oc23    O  -0.550
O247    10.359084205    2.546484451   19.747293801 XXXX 1      oc23    O  -0.550
O248     2.699062539    3.641813533    8.681647190 XXXX 1      oc23    O  -0.550
O249     7.405462051   16.869075503   12.785049397 XXXX 1      oc23    O  -0.550
O250     2.901499206    1.039147382   20.441128568 XXXX 1      oc23    O  -0.550
O251     3.237107559    0.527230303   13.048843580 XXXX 1      oc23    O  -0.550
O252    17.346885034    6.345474564    2.443409422 XXXX 1      oc24    O  -0.675
O253    14.300539117   10.657550580   12.483647322 XXXX 1      oc23    O  -0.550
O254    14.102271866   13.257614455   11.796705776 XXXX 1      oc23    O  -0.550
O255     9.842571103    5.284857011   19.712872374 XXXX 1      oc23    O  -0.550
O256    14.159840496    7.438325772   14.503536537 XXXX 1      oc23    O  -0.550
O257    17.585549447   11.033297092   14.050195143 XXXX 1      oc23    O  -0.550
O258     0.379557186   15.687766647   12.782759279 XXXX 1      oc23    O  -0.550
O259    10.616252521    0.467365247   21.465261003 XXXX 1      oc23    O  -0.550
Si134   19.031479037    2.985145553    6.738306409 XXXX 1      sc4     Si  1.100
Si135    8.374589058   15.644594168   13.178167366 XXXX 1      sc4     Si  1.100
Si136   16.943294274   11.829536927   19.932166498 XXXX 1      sc4     Si  1.100
Si137   14.056030734    3.240234101   13.067894831 XXXX 1      sc4     Si  1.100
Si138    2.267799129    5.275203583    4.519296425 XXXX 1      sc4     Si  1.100
Si139   11.075477538    0.504020111    9.854344627 XXXX 1      sc4     Si  1.100
Si140    1.020371078   17.313971573   16.538157791 XXXX 1      sc4     Si  1.100
Si141   -0.047088172   16.057794942   11.319897529 XXXX 1      sc4     Si  1.100
O260     2.959600690    5.167645905   13.922901154 XXXX 1      oc23    O  -0.550
O261     2.921809524    6.392251334   11.330190397 XXXX 1      oc23    O  -0.550
O262     3.333858962   18.950452251   11.603782134 XXXX 1      oc23    O  -0.550
O263     4.901914485   17.379019227   10.322087382 XXXX 1      oc23    O  -0.550
O264    13.852884296   18.182759051   12.592881389 XXXX 1      oc23    O  -0.550
O265    15.034188020   18.761730091   10.327068653 XXXX 1      oc23    O  -0.550
O266    13.877154073    1.935826758    3.393956946 XXXX 1      oc23    O  -0.550
O267     5.968280394   18.981857377   12.042723223 XXXX 1      oc23    O  -0.550
O268     0.316894718   18.549722649   17.329634617 XXXX 1      oc23    O  -0.550
O269    16.908864833    9.946991396   10.547754790 XXXX 1      oc23    O  -0.550
O270     0.019353344    8.895157376   11.556778777 XXXX 1      oc23    O  -0.550
O271    16.938818783    4.181191691    3.606356090 XXXX 1      oc23    O  -0.550
O272    13.562698271    3.366336473   14.601296795 XXXX 1      oc23    O  -0.550
O273    16.100191083    4.726105320   19.235050284 XXXX 1      oc23    O  -0.550
O274     1.833483974   11.026170003   15.686031177 XXXX 1      oc23    O  -0.550
O275     0.596041937   16.406735845    7.879100053 XXXX 1      oc23    O  -0.550
Si142    4.777462798   11.297177199   20.460274097 XXXX 1      sc4     Si  1.100
Si143   15.179643277   18.791105256   11.884338153 XXXX 1      sc4     Si  1.100
Si144   16.161026521   19.206833603   21.219526743 XXXX 1      sc4     Si  1.100
Si145    7.212394779    7.696447531    3.418532623 XXXX 1      sc4     Si  1.100
Si146   13.866470565    1.769191381    9.396587983 XXXX 1      sc4     Si  1.100
Si147    7.392883818   19.171450050   15.159080246 XXXX 1      sc4     Si  1.100
Si148    6.605415485    1.158827795   15.238544183 XXXX 1      sc4     Si  1.100
O276     5.159243799   18.310286038   17.793411352 XXXX 1      oc23    O  -0.550
O277    11.291041209    2.566131485   15.820171599 XXXX 1      oc23    O  -0.550
O278    15.425281046    4.033984023   12.966711708 XXXX 1      oc23    O  -0.550
O279    12.976521900   19.587510550    7.721408878 XXXX 1      oc23    O  -0.550
O280     6.161267767    4.395809436   17.704763724 XXXX 1      oc23    O  -0.550
O281     5.821091410    1.607726756   16.491319772 XXXX 1      oc23    O  -0.550
O282    17.758096743    8.141136778   20.301819022 XXXX 1      oc23    O  -0.550
O283     5.818430746    3.740641392   11.963778520 XXXX 1      oc23    O  -0.550
O284     6.085838624    6.577369202    2.808929179 XXXX 1      oc23    O  -0.550
O285     0.361791289   19.882382134    6.135996681 XXXX 1      oc23    O  -0.550
O286    19.974925737    8.107204079   21.507732671 XXXX 1      oc23    O  -0.550
O287    -0.489139318   10.005949167   19.701612450 XXXX 1      oc23    O  -0.550
O288     9.065463682   12.984784740   17.379565526 XXXX 1      oc23    O  -0.550
O289    11.096804904   16.619239664    2.286275650 XXXX 1      oc23    O  -0.550
O290    12.932013293    7.644947150    4.039985582 XXXX 1      oc23    O  -0.550
O291     8.414218479   10.777619560    4.390137978 XXXX 1      oc24    O  -0.675
Si149   16.623920840    1.358003745   21.958076156 XXXX 1      sc4     Si  1.100
Si150   12.865332684    5.836772400   19.275632164 XXXX 1      sc4     Si  1.100
Si151    2.163573356    3.472021314    7.061611477 XXXX 1      sc4     Si  1.100
Si152    8.946212574    5.887733804    5.243160940 XXXX 1      sc4     Si  1.100
Si153    6.554538465    3.091547178   10.735862499 XXXX 1      sc4     Si  1.100
Si154   10.965740903    5.113618568   13.205883073 XXXX 1      sc4     Si  1.100
Si155   14.768473619   11.535493873    3.843639076 XXXX 1      sc4     Si  1.100
Si156    5.159485295    5.203236282    3.214749389 XXXX 1      sc4     Si  1.100
O292    14.432529454   19.062816270   17.892682173 XXXX 1      oc23    O  -0.550
O293     5.354085047    9.981504437   19.793989699 XXXX 1      oc23    O  -0.550
O294     1.600012932   15.126983761    3.036108909 XXXX 1      oc23    O  -0.550
O295     6.997032955   10.174908843   12.229556065 XXXX 1      oc23    O  -0.550
O296    17.387885336    3.365217771   14.474404545 XXXX 1      oc23    O  -0.550
O297    10.298693313   18.903468040    3.700811683 XXXX 1      oc23    O  -0.550
O298    17.894965065    1.041931633   15.069181672 XXXX 1      oc23    O  -0.550
O299    10.819519106   19.835480652   10.353533063 XXXX 1      oc23    O  -0.550
O300     2.992001742   16.565544481   21.665527798 XXXX 1      oc23    O  -0.550
O301    18.843491598   10.947863395    3.989842195 XXXX 1      oc23    O  -0.550
O302    13.320567605    8.738834948    9.708566112 XXXX 1      oc23    O  -0.550
O303     2.020226085    7.732741727    2.091392568 XXXX 1      oc24    O  -0.675
O304     7.094675551    9.876184160    6.806932124 XXXX 1      oc23    O  -0.550
O305    10.673418658    0.336181644    8.276746370 XXXX 1      oc23    O  -0.550
O306    10.160776104    1.525633419   10.734587631 XXXX 1      oc23    O  -0.550
O307    11.483906633    4.403225770    7.519523874 XXXX 1      oc23    O  -0.550
Si157   12.345595426   11.368606141   18.740677428 XXXX 1      sc4     Si  1.100
Si158   12.433118006    5.392704860   22.160937715 XXXX 1      sc4     Si  1.100
Si159    5.536065716    3.382548995   13.533749206 XXXX 1      sc4     Si  1.100
Si160    7.427030913   14.020004320   10.814783632 XXXX 1      sc4     Si  1.100
Si161   12.600102477   17.967726424    7.691736192 XXXX 1      sc4     Si  1.100
Si162   17.602158625   10.379955890    9.220591164 XXXX 1      sc4     Si  1.100
Si163    9.183021311    7.471678747   12.632754775 XXXX 1      sc4     Si  1.100
Si164   11.466854112    8.062043004    3.584921147 XXXX 1      sc4     Si  1.100
O308     4.762022054   20.033069691    9.919667523 XXXX 1      oc23    O  -0.550
O309     4.381007292   16.476631203   15.105632193 XXXX 1      oc23    O  -0.550
O310    11.184650680   13.256537736   16.151909474 XXXX 1      oc23    O  -0.550
O311     7.736688627   12.490707803   11.120387423 XXXX 1      oc23    O  -0.550
O312     9.910340248    3.722788478    9.623129223 XXXX 1      oc23    O  -0.550
O313    16.333130473   19.630848487   19.663887061 XXXX 1      oc23    O  -0.550
O314    17.671741996    7.653357782   10.621387896 XXXX 1      oc23    O  -0.550
O315    17.699640224    1.283869577   20.731008991 XXXX 1      oc23    O  -0.550
O316     9.820922343    6.162469386    8.650295964 XXXX 1      oc23    O  -0.550
O317    -0.137595214   11.134556829   17.311858233 XXXX 1      oc23    O  -0.550
O318     5.324171346    4.739570790   14.475089118 XXXX 1      oc23    O  -0.550
O319     7.515239535   14.470411166    9.331571842 XXXX 1      oc23    O  -0.550
O320    18.620549674    6.000926353   21.615903645 XXXX 1      oc23    O  -0.550
O321    13.734197882    3.421113623    9.426475609 XXXX 1      oc23    O  -0.550
O322     7.604214096    1.990740659   18.175079433 XXXX 1      oc23    O  -0.550
O323     4.963273466    8.707387840   12.822113431 XXXX 1      oc23    O  -0.550
Si165    4.946018796   19.594719134   18.659040869 XXXX 1      sc4     Si  1.100
Si166    9.501104963    9.017920622   17.141503690 XXXX 1      sc4     Si  1.100
Si167   13.915332113    1.902544474   18.352753208 XXXX 1      sc4     Si  1.100
Si168    8.108632560   13.527999326    6.284744907 XXXX 1      sc4     Si  1.100
Si169    7.336645220   16.361160505    1.863623247 XXXX 1      sc4     Si  1.100
Si170   15.869791610   15.598107569    4.243297425 XXXX 1      sc4     Si  1.100
Si171   18.525931188    7.567883955   21.587904399 XXXX 1      sc4     Si  1.100
Si172   16.227464433   12.793865925    7.855938374 XXXX 1      sc4     Si  1.100
O324     1.055344186    0.155003694   16.156441867 XXXX 1      oc23    O  -0.550
O325    11.994816661   11.676900903    1.863410769 XXXX 1      oc24    O  -0.675
O326     9.893851819   18.691502580   21.948963526 XXXX 1      oc24    O  -0.675
O327     4.854463769   12.876149725    3.741110729 XXXX 1      oc23    O  -0.550
O328    13.307828375   12.593998735   19.232759462 XXXX 1      oc23    O  -0.550
O329     8.800151774    8.493806067   18.527096287 XXXX 1      oc23    O  -0.550
O330     4.542064591    9.506693607    6.073081943 XXXX 1      oc23    O  -0.550
O331    10.452292161    4.797244092   14.707626528 XXXX 1      oc23    O  -0.550
O332     8.522181737    6.992435095   20.677136686 XXXX 1      oc23    O  -0.550
O333    18.072229348   15.487567305   21.671074739 XXXX 1      oc23    O  -0.550
O334    15.737681125   12.822454541   19.660204579 XXXX 1      oc23    O  -0.550
O335     3.561762373    5.301430086    3.406704215 XXXX 1      oc23    O  -0.550
O336    10.594885506   13.862106944    2.657414112 XXXX 1      oc23    O  -0.550
O337     5.942559838   10.912978689    4.815669387 XXXX 1      oc23    O  -0.550
O338     7.609817771    9.042945695    2.529294133 XXXX 1      oc23    O  -0.550
O339     4.379475112    5.564150126    9.090299619 XXXX 1      oc23    O  -0.550
Si173    5.591498726   12.471110777    5.027196105 XXXX 1      sc4     Si  1.100
Si174    9.692922702   11.456524194   21.588423633 XXXX 1      sc4     Si  1.100
Si175    2.767839421    9.402492032    8.714651101 XXXX 1      sc4     Si  1.100
Si176    5.171217089   11.271281614    9.448430842 XXXX 1      sc4     Si  1.100
Si177    2.198312477   12.683698561   19.858084867 XXXX 1      sc4     Si  1.100
Si178    2.526071599    7.657832587   19.437865407 XXXX 1      sc4     Si  1.100
Si179    7.326122710   12.770084265   19.842338985 XXXX 1      sc4     Si  1.100
Si180   13.499685762   16.858136681   13.441607653 XXXX 1      sc4     Si  1.100
O340    13.721498301    9.821328294   21.346018662 XXXX 1      oc23    O  -0.550
O341     7.996839603    1.363675813   15.814930711 XXXX 1      oc23    O  -0.550
O342     7.678675452   12.456651627    7.412346516 XXXX 1      oc23    O  -0.550
O343     3.608225177   12.004959386   19.591410975 XXXX 1      oc23    O  -0.550
O344     9.990889473   10.261211817   10.904871114 XXXX 1      oc23    O  -0.550
O345     6.409525951    7.640265522   19.076216688 XXXX 1      oc23    O  -0.550
O346    18.284849408   17.175920646   16.752021064 XXXX 1      oc23    O  -0.550
O347    19.239905953    5.257926072   14.611778572 XXXX 1      oc23    O  -0.550
O348     7.955920400    4.762772725    5.335916709 XXXX 1      oc23    O  -0.550
O349     6.961274083   13.243071340    5.154183338 XXXX 1      oc23    O  -0.550
O350    15.090547967    0.788255970   18.806945218 XXXX 1      oc23    O  -0.550
O351    18.834218621    1.114549426   10.080861946 XXXX 1      oc23    O  -0.550
O352    11.031736673   17.624753162    8.046744272 XXXX 1      oc23    O  -0.550
O353    10.083814481   19.104993524   17.611961519 XXXX 1      oc23    O  -0.550
O354     9.798588141   10.083758163   20.816093040 XXXX 1      oc23    O  -0.550
O355    11.146310441    9.149218595   17.493780161 XXXX 1      oc23    O  -0.550
Si181    8.040540819   11.835005721   17.147949088 XXXX 1      sc4     Si  1.100
Si182   13.235624590   10.295724241    9.195850148 XXXX 1      sc4     Si  1.100
Si183    7.951888853    7.311875504   19.124233889 XXXX 1      sc4     Si  1.100
Si184    8.694204589    1.027708015    1.599026292 XXXX 1      sc4     Si  1.100
Si185    9.998508621    6.438903393   20.818877768 XXXX 1      sc4     Si  1.100
Si186   12.539468887   13.544903320   15.278300073 XXXX 1      sc4     Si  1.100
Si187   12.554263838    8.267297492   17.919476908 XXXX 1      sc4     Si  1.100
Si188    6.210532409   17.183584860   17.326401012 XXXX 1      sc4     Si  1.100
O356    11.758813512   14.245559652   11.159741575 XXXX 1      oc23    O  -0.550
O357     9.656800985   13.297886460    5.839518987 XXXX 1      oc23    O  -0.550
O358     3.402087670    1.514148520   10.181903651 XXXX 1      oc23    O  -0.550
O359     3.769270762   16.739434591    3.075014887 XXXX 1      oc23    O  -0.550
O360     1.042560352   16.930269441   10.427047969 XXXX 1      oc23    O  -0.550
O361     1.549514676    9.921469329    9.676671906 XXXX 1      oc23    O  -0.550
O362    18.472393503   13.231885564    4.627561677 XXXX 1      oc23    O  -0.550
O363    11.790420691    5.126007010   10.059260960 XXXX 1      oc23    O  -0.550
O364    13.114518406    7.476112187   16.640403304 XXXX 1      oc23    O  -0.550
O365     4.872726475    1.137896370    8.047953004 XXXX 1      oc23    O  -0.550
O366     6.908138892   17.788657691   15.945057270 XXXX 1      oc23    O  -0.550
O367    18.362576370   15.826480645    8.985574903 XXXX 1      oc23    O  -0.550
O368     3.047998844   17.191663957    8.545429832 XXXX 1      oc23    O  -0.550
O369     9.120171001   11.329493584   12.979696080 XXXX 1      oc23    O  -0.550
O370    13.201396996    1.354009729   22.060911260 XXXX 1      oc24    O  -0.675
O371    10.802062889    5.640923768   22.061407980 XXXX 1      oc23    O  -0.550
Si189   10.089459006   19.406784756   16.112460340 XXXX 1      sc4     Si  1.100
Si190   10.180691738   15.660462190   19.640089532 XXXX 1      sc4     Si  1.100
Si191    4.835677220   17.918506045    2.993023729 XXXX 1      sc4     Si  1.100
Si192   14.271634054   13.204913260   20.289519222 XXXX 1      sc4     Si  1.100
Si193    1.100331430    0.681050741    2.784164945 XXXX 1      sc4     Si  1.100
Si194    0.106257663    6.579606604    8.714202400 XXXX 1      sc4     Si  1.100
Si195   10.461363290   13.307912788   17.564769605 XXXX 1      sc4     Si  1.100
Si196    9.196768578    7.394490840    7.814490048 XXXX 1      sc4     Si  1.100
O372     5.566866105    3.885226719    2.296332470 XXXX 1      oc23    O  -0.550
O373    10.544007885   14.750450700   18.286792175 XXXX 1      oc23    O  -0.550
O374     2.694789197    0.386232290    2.734919312 XXXX 1      oc24    O  -0.675
O375     1.757482479    8.943135577   19.891939217 XXXX 1      oc23    O  -0.550
O376     6.438189518    2.164622434   13.968063271 XXXX 1      oc23    O  -0.550
O377    -0.235397606   14.676618896   10.510100461 XXXX 1      oc23    O  -0.550
O378    10.803231924    7.730753130   20.332390517 XXXX 1      oc23    O  -0.550
O379     4.249943893    0.064389864   17.923537911 XXXX 1      oc23    O  -0.550
O380    11.010087311   12.071002264   18.414250798 XXXX 1      oc23    O  -0.550
O381     8.579469222    7.742934131   11.203652394 XXXX 1      oc23    O  -0.550
O382    15.415605576   15.007493888    2.884522077 XXXX 1      oc23    O  -0.550
O383    12.553982693    1.089234492    9.997101311 XXXX 1      oc23    O  -0.550
O384     3.805634576   18.896134744    2.321238825 XXXX 1      oc23    O  -0.550
O385     6.676047142    2.794334780    6.164427171 XXXX 1      oc23    O  -0.550
O386     7.039283391    0.246269246    5.125428458 XXXX 1      oc23    O  -0.550
O387     2.630115950   13.604358703    4.868408945 XXXX 1      oc23    O  -0.550
Si197    6.396584874    2.532115902    2.594287055 XXXX 1      sc4     Si  1.100
Si198    9.294209927    2.981727402    3.412252563 XXXX 1      sc4     Si  1.100
Si199   11.343450710   13.973020108    9.657336765 XXXX 1      sc4     Si  1.100
Si200   10.734454742    4.894733460    8.881440659 XXXX 1      sc4     Si  1.100
Si201   11.127887038    3.752457827    6.214454129 XXXX 1      sc4     Si  1.100
Si202   11.041613991    9.234444234   20.762880683 XXXX 1      sc4     Si  1.100
Si203   11.564455858   15.196630931    2.942952105 XXXX 1      sc4     Si  1.100
O388    10.394157636    5.009127131    5.392079836 XXXX 1      oc23    O  -0.550
O389    12.026020144   15.406525682    4.543070034 XXXX 1      oc23    O  -0.550
O390    13.526334457   15.555183279   12.461055007 XXXX 1      oc23    O  -0.550
O391     3.964228853   15.057213114    9.617439458 XXXX 1      oc23    O  -0.550
O392     8.931900615    0.102656444    2.904848196 XXXX 1      oc23    O  -0.550
O393    12.101650534    4.511943514   19.061367153 XXXX 1      oc23    O  -0.550
O394     8.689689450   15.551869158   20.306445694 XXXX 1      oc23    O  -0.550
O395    15.285147118    6.215792286    4.211922454 XXXX 1      oc23    O  -0.550
O396     5.490953368    1.251225283    3.373440863 XXXX 1      oc23    O  -0.550
O397    10.688375808    8.604014795    4.880874787 XXXX 1      oc23    O  -0.550
O398     2.911662475   15.508573202    0.893859837 XXXX 1      oc24    O  -0.675
O399    12.086734233   16.968055856   14.055293910 XXXX 1      oc23    O  -0.550
O400    11.447340971   15.519883690   20.588678318 XXXX 1      oc23    O  -0.550
O401     7.100763420   12.415757298   15.948574413 XXXX 1      oc23    O  -0.550
Si204    4.771778323   18.836473154   10.971114983 XXXX 1      sc4     Si  1.100
Si205    0.480499780   12.919074015    7.586591446 XXXX 1      sc4     Si  1.100
Si206   10.688052612   17.477876103   13.853966133 XXXX 1      sc4     Si  1.100
Si207    7.698953931    1.542550224    5.763502540 XXXX 1      sc4     Si  1.100
Si208   14.496751848   15.636805243   15.947818779 XXXX 1      sc4     Si  1.100
Si209   10.080428727   18.672401931   11.199615313 XXXX 1      sc4     Si  1.100
Si210    7.661904676    7.417030321   15.154146114 XXXX 1      sc4     Si  1.100
Si211    4.837370397    0.888910824    9.656864670 XXXX 1      sc4     Si  1.100
O402    12.502661728    4.488410044   16.406118931 XXXX 1      oc23    O  -0.550
O403    10.340337605    8.479843294    7.460634064 XXXX 1      oc23    O  -0.550
O404     7.113381902    6.081511110   15.813821182 XXXX 1      oc23    O  -0.550
O405     6.799248696   12.449939420   13.439057918 XXXX 1      oc23    O  -0.550
O406    15.100384436    1.283915109   10.331152873 XXXX 1      oc23    O  -0.550
O407    10.027455135   20.698924047    5.690671855 XXXX 1      oc23    O  -0.550
O408    13.669975488   12.448737990   15.603050097 XXXX 1      oc23    O  -0.550
O409     9.087112442   10.670933011    8.476069854 XXXX 1      oc23    O  -0.550
O410    14.353633458    1.816295520   12.684385509 XXXX 1      oc23    O  -0.550
O411    15.369687640   20.368047821    6.759187556 XXXX 1      oc23    O  -0.550
O412     3.968595010    7.923619177   19.127799579 XXXX 1      oc23    O  -0.550
O413    18.956130993    3.184653115    2.666763141 XXXX 1      oc23    O  -0.550
O414    16.902576318   11.902084570    8.922848881 XXXX 1      oc23    O  -0.550
O415     7.120597955   16.832905402   18.585384194 XXXX 1      oc23    O  -0.550
O416    17.707984461   12.742366161   21.189592681 XXXX 1      oc23    O  -0.550
O417     1.019778451    4.602306411    3.743989734 XXXX 1      oc23    O  -0.550
O418    19.278366339   13.762711709   23.120102556 XXXX 1      oc24    O  -0.675
Si212   20.409033938    3.172965097   17.881610806 XXXX 1      sc4     Si  1.100
O419     5.024027804   18.145635708   22.149016436 XXXX 1      oc23    O  -0.550
O420     5.800450085   15.817655748   20.873459271 XXXX 1      oc23    O  -0.550
O421    14.099569751   18.200533557   24.056909371 XXXX 1      oc24    O  -0.675
O422    14.661518397    1.642740959    0.790551934 XXXX 1      oc24    O  -0.675
O423    13.451510257   10.917536223   23.639333924 XXXX 1      oc24    O  -0.675
O424     7.050127896   11.881657780    2.411798051 XXXX 1      oc23    O  -0.550
O425     9.724529880   18.506715629    1.036592951 XXXX 1      oc24    O  -0.675
H1       5.197442440    6.994481858   21.452786858 XXXX 1      hoy     H   0.400
H2      14.421380448   14.418968614    0.228758440 XXXX 1      hoy     H   0.400
O426    17.061578195    3.971666135    1.072005004 XXXX 1      oc24    O  -0.675
H3       1.549693888   12.984825520   21.835157632 XXXX 1      hoy     H   0.400
H4       1.764831394   10.143416711   22.264764659 XXXX 1      hoy     H   0.400
O427    19.256233985    9.792574218    1.654221308 XXXX 1      oc24    O  -0.675
O428    15.758362099    9.411773177    0.605158596 XXXX 1      oc24    O  -0.675
O429    14.677643381    7.773469362    2.296993825 XXXX 1      oc23    O  -0.550
H5       4.091397803   11.733474470   22.337454221 XXXX 1      hoy     H   0.400
O430     1.323481810   20.209279933    1.875403812 XXXX 1      oc23    O  -0.550
O431    10.918209388    5.027274537    1.080243801 XXXX 1      oc24    O  -0.675
H6      18.218159163    6.692588817    2.520463282 XXXX 1      hoy     H   0.400
O432    13.093515438    6.279721856   23.395063088 XXXX 1      oc24    O  -0.675
O433     7.032227735   14.730604251    2.254145045 XXXX 1      oc23    O  -0.550
O434     7.689358959   16.289856275    0.281754500 XXXX 1      oc24    O  -0.675
O435    17.974304405    8.047500507   22.970311234 XXXX 1      oc24    O  -0.675
H7      11.761948369   11.526496064    0.983820398 XXXX 1      hoy     H   0.400
H8       9.852474564   18.765963422   22.902251359 XXXX 1      hoy     H   0.400
O436     8.866631137   10.981340464   22.946467269 XXXX 1      oc24    O  -0.675
O437    11.363929835   11.753508469   21.873795584 XXXX 1      oc23    O  -0.550
O438     2.519137592    6.903811989   20.827801841 XXXX 1      oc24    O  -0.675
O439     9.321744709    0.371425321    0.246414211 XXXX 1      oc24    O  -0.675
O440     7.268916325    1.778733217    1.525912772 XXXX 1      oc23    O  -0.550
O441     0.515255159    0.657355747    1.299726482 XXXX 1      oc24    O  -0.675
H9       3.097094059    1.170939875    2.415017947 XXXX 1      hoy     H   0.400
O442    11.330912126    9.074723721   22.399330933 XXXX 1      oc24    O  -0.675
H10      3.829629625   15.322513052    0.941619982 XXXX 1      hoy     H   0.400
H11     19.062832241   14.495688618   23.658767811 XXXX 1      hoy     H   0.400
H12     15.035115948   18.223399027   24.055024989 XXXX 1      hoy     H   0.400
H13     15.482314030    1.816570210    0.361346122 XXXX 1      hoy     H   0.400
H14     13.190228998   11.621581734   24.197111124 XXXX 1      hoy     H   0.400
H15      9.489151512   19.415912337    1.105475322 XXXX 1      hoy     H   0.400
H16     16.013194082   10.298989074    0.464077683 XXXX 1      hoy     H   0.400
H17     10.604850807    5.835761740    0.723030492 XXXX 1      hoy     H   0.400
H18     13.285304538    5.727730468   24.129777876 XXXX 1      hoy     H   0.400
H19      8.362510560   16.912702353    0.090519120 XXXX 1      hoy     H   0.400
H20     17.148666687    8.475861158   22.839503898 XXXX 1      hoy     H   0.400
H21      3.245726596    7.207176062   21.347244256 XXXX 1      hoy     H   0.400
H22     10.579608555    8.743414110   22.851255634 XXXX 1      hoy     H   0.400
Si213    4.688407437   16.591273372   21.932366325 XXXX 1      sc4     Si  1.100
O443     5.010441836   15.842141226   23.290338197 XXXX 1      oc24    O  -0.675
H23      5.933294878   15.890974851   23.433801359 XXXX 1      hoy     H   0.400
Si214    6.738534607   13.249700817    1.541351898 XXXX 1      sc4     Si  1.100
O444     7.340192572   13.205161449    0.061965063 XXXX 1      oc24    O  -0.675
H24      7.454885592   12.315995901   -0.207560431 XXXX 1      hoy     H   0.400
O445     5.202097976   13.110613919    1.352724954 XXXX 1      oc23    O  -0.550
Si215    9.586734020    1.620893875   20.900726805 XXXX 1      sc4     Si  1.100
O446     9.249097579    2.557646303   22.131145774 XXXX 1      oc24    O  -0.675
H25      9.072390882    3.424139509   21.823230217 XXXX 1      hoy     H   0.400
O447     2.743618304   19.359593103   22.373526823 XXXX 1      oc24    O  -0.675
H26      2.724223308   19.977416792   23.068160985 XXXX 1      hoy     H   0.400
O448    21.638151524    3.357532258   18.991416881 XXXX 1      oc23    O  -0.550
O449    19.348473553    2.447449614   19.022366897 XXXX 1      oc23    O  -0.550
O450    20.164726201    4.805820492   17.583749795 XXXX 1      oc23    O  -0.550
Si216   21.411380502    4.296538604   20.300213477 XXXX 1      sc4     Si  1.100
O451     2.436121441    4.392536371   21.094665697 XXXX 1      oc23    O  -0.550
O452    20.855561776    5.642042469   19.766793929 XXXX 1      oc23    O  -0.550
Si217   20.555820428    6.253288530   18.304026809 XXXX 1      sc4     Si  1.100
O453    19.302595265    7.379326637   18.234335451 XXXX 1      oc23    O  -0.550
Si218   19.189512526    1.442989066   20.356352682 XXXX 1      sc4     Si  1.100
Si219    3.958117255    4.439437544   20.935926379 XXXX 1      sc4     Si  1.100
O454     4.452928732    5.655548995   21.949009962 XXXX 1      oc24    O  -0.675
O455    19.974643391    1.891734839   21.668029691 XXXX 1      oc24    O  -0.675
H27     13.809908344    0.919057921   22.625923278 XXXX 1      hoy     H   0.400
O456    17.407277128    1.641796360   23.292322262 XXXX 1      oc24    O  -0.675
H28     17.108032775    2.450913417   23.654239124 XXXX 1      hoy     H   0.400
H29     17.313473917    4.325987901   22.456602299 XXXX 1      hoy     H   0.400
H30      9.255981799   10.396130996    4.552498119 XXXX 1      hoy     H   0.400
O457     4.198945523   10.786984051    2.166276268 XXXX 1      oc24    O  -0.675
H31      5.072382529   10.457877132    2.111652786 XXXX 1      hoy     H   0.400
H32     12.434734115    9.520826803    2.341145003 XXXX 1      hoy     H   0.400
H33     17.215524466    4.895448926    1.212033018 XXXX 1      hoy     H   0.400
H34      4.253589222    5.368425863   22.832175603 XXXX 1      hoy     H   0.400
H35      2.176167003    8.556218155    1.658156380 XXXX 1      hoy     H   0.400
H36     20.139887923   10.140029130    1.669193266 XXXX 1      hoy     H   0.400
H37      8.400886243   11.730982851   23.308631446 XXXX 1      hoy     H   0.400
H38     19.367685551    1.812359174   22.412036766 XXXX 1      hoy     H   0.400
Si1     15.764732314   40.802261997   18.525987462 XXXX 2      sc4     Si  1.100
Si2     14.268368448   27.799248357   15.941492284 XXXX 2      sc4     Si  1.100
Si3     18.590032232   34.838750393   21.717772044 XXXX 2      sc4     Si  1.100
Si4     17.191391461   35.346085049   16.524937019 XXXX 2      sc4     Si  1.100
Si5      8.406316984   22.880193643   17.175711935 XXXX 2      sc4     Si  1.100
Si6     17.746888191   22.817091986   13.735738339 XXXX 2      sc4     Si  1.100
Si7      0.231022644   20.151317386   17.258079503 XXXX 2      sc4     Si  1.100
Si8     13.826719796   23.317506994   21.319955639 XXXX 2      sc4     Si  1.100
O1       8.572534915   40.464053710   15.976479381 XXXX 2      oc23    O  -0.550
O2      14.250025543   26.716671664   10.447751904 XXXX 2      oc23    O  -0.550
O3      12.520157594   33.192987953    6.466808802 XXXX 2      oc23    O  -0.550
O4       8.059125821   23.592077734   11.202117909 XXXX 2      oc23    O  -0.550
O5      16.609124686   38.912383171   12.048318007 XXXX 2      oc23    O  -0.550
O6       2.037005121   39.730706857   20.120769520 XXXX 2      oc23    O  -0.550
O7       3.805904607   25.988545416   16.557161903 XXXX 2      oc23    O  -0.550
O8       8.191076509   28.694426562    8.711629271 XXXX 2      oc23    O  -0.550
O9      17.933384601   38.435915281   14.236956924 XXXX 2      oc23    O  -0.550
O10     16.423677164   34.522787712    9.416583775 XXXX 2      oc23    O  -0.550
O11      8.602730361   23.049070589    2.102016465 XXXX 2      oc23    O  -0.550
O12     11.896367876   30.878390424   19.783319366 XXXX 2      oc23    O  -0.550
O13     14.130894583   22.931777371    0.753794657 XXXX 2      oc24    O  -0.675
O14     19.109568844   23.089383341   12.718144173 XXXX 2      oc23    O  -0.550
O15      0.068278321   21.307435711   11.714503195 XXXX 2      oc23    O  -0.550
O16      2.311774431   33.930394729    7.541051865 XXXX 2      oc23    O  -0.550
Si9      7.341926299   28.342628402   10.047197208 XXXX 2      sc4     Si  1.100
Si10    13.331855454   25.400666749   10.388307330 XXXX 2      sc4     Si  1.100
Si11    15.071197026   28.282717389    2.876732158 XXXX 2      sc4     Si  1.100
Si12    14.646198402   28.227903505    9.969078847 XXXX 2      sc4     Si  1.100
Si13    17.796596778   21.587224587   16.796002591 XXXX 2      sc4     Si  1.100
Si14    17.776076802   27.156802759    3.697718792 XXXX 2      sc4     Si  1.100
Si15     2.416141378   25.737217976   12.476234516 XXXX 2      sc4     Si  1.100
Si16    11.308699274   29.670274723    6.268912068 XXXX 2      sc4     Si  1.100
O17     13.511257159   23.472421167   19.759900357 XXXX 2      oc23    O  -0.550
O18     18.532503251   25.011827977    6.322276704 XXXX 2      oc23    O  -0.550
O19     10.204477320   37.939851600   10.540200565 XXXX 2      oc23    O  -0.550
O20     18.277955350   25.214554892   19.082448905 XXXX 2      oc23    O  -0.550
O21     15.558722764   29.360653818    6.410919539 XXXX 2      oc23    O  -0.550
O22     17.608407492   24.450425236   21.426709624 XXXX 2      oc24    O  -0.675
O23     20.090064199   22.977434205   16.449344825 XXXX 2      oc23    O  -0.550
O24     17.243075271   22.991438960   17.731841998 XXXX 2      oc23    O  -0.550
O25      2.863445819   24.438450442   11.613249012 XXXX 2      oc23    O  -0.550
O26     10.736753162   31.238515868    6.339855121 XXXX 2      oc23    O  -0.550
O27     10.000121599   23.299318840    6.422135622 XXXX 2      oc23    O  -0.550
O28     12.833121164   29.658714812    6.462701056 XXXX 2      oc23    O  -0.550
O29      8.585233895   23.267540814    4.674069019 XXXX 2      oc23    O  -0.550
O30     16.686005811   20.433758546   17.126678076 XXXX 2      oc23    O  -0.550
O31      0.066106967   37.825539115   15.416595072 XXXX 2      oc23    O  -0.550
Si17    17.524270665   34.005883593   12.050962724 XXXX 2      sc4     Si  1.100
Si18     1.493376401   28.704660331    4.013473682 XXXX 2      sc4     Si  1.100
Si19    13.843854017   38.372897588   18.302231300 XXXX 2      sc4     Si  1.100
Si20    14.747187103   32.601753184   11.612044853 XXXX 2      sc4     Si  1.100
Si21     0.473630127   32.596574561   16.288503946 XXXX 2      sc4     Si  1.100
Si22     3.280732181   33.366421199    6.474429425 XXXX 2      sc4     Si  1.100
Si23     4.401083924   40.315891257   21.704031335 XXXX 2      sc4     Si  1.100
Si24    11.234036071   21.945860899   16.851811823 XXXX 2      sc4     Si  1.100
O32      3.316217117   35.212507692   16.431284903 XXXX 2      oc23    O  -0.550
O33     14.269255135   31.377810208    5.020775331 XXXX 2      oc23    O  -0.550
O34     19.917395554   26.882274002    7.376403532 XXXX 2      oc23    O  -0.550
O35      2.407989676   37.639884123   13.840864264 XXXX 2      oc23    O  -0.550
O36     17.277705358   27.299991562    6.894930445 XXXX 2      oc23    O  -0.550
O37     16.821866096   37.844557034    4.339735677 XXXX 2      oc23    O  -0.550
O38      5.634313255   39.880276948    3.699372180 XXXX 2      oc23    O  -0.550
O39      0.292282147   41.180701542    3.800956338 XXXX 2      oc23    O  -0.550
O40      0.872702105   25.694625839   12.803439997 XXXX 2      oc23    O  -0.550
O41     14.692520033   37.180028820   14.745470116 XXXX 2      oc23    O  -0.550
O42     -0.107358917   21.039619160    8.432182781 XXXX 2      oc23    O  -0.550
O43     14.701187467   26.232330884   15.985095994 XXXX 2      oc23    O  -0.550
O44     18.934360283   27.101201092   12.476375933 XXXX 2      oc23    O  -0.550
O45      7.907985789   35.223694703   14.459012558 XXXX 2      oc23    O  -0.550
O46      5.895794862   22.280631588   10.422184546 XXXX 2      oc23    O  -0.550
O47     10.336669505   24.887615111   17.468425632 XXXX 2      oc23    O  -0.550
Si25    13.708235229   38.874016415   22.574122889 XXXX 2      sc4     Si  1.100
Si26    16.245243846   29.958309389   16.310600948 XXXX 2      sc4     Si  1.100
Si27     0.520004210   39.716082248    4.500528009 XXXX 2      sc4     Si  1.100
Si28    14.776334864   29.901216120   19.974825315 XXXX 2      sc4     Si  1.100
Si29    13.944801869   24.855671625   15.992414523 XXXX 2      sc4     Si  1.100
Si30     1.697292533   35.353997452   16.431237764 XXXX 2      sc4     Si  1.100
Si31    14.291467988   23.525911379    2.259456993 XXXX 2      sc4     Si  1.100
Si32    14.256192709   34.697092705    2.340432197 XXXX 2      sc4     Si  1.100
O48     14.229666565   33.488480627    3.376958710 XXXX 2      oc23    O  -0.550
O49      8.907872936   28.775881832   16.166404410 XXXX 2      oc23    O  -0.550
O50     11.605697657   28.899514356    2.182471028 XXXX 2      oc24    O  -0.675
O51     -0.240597586   24.693795822   20.966451439 XXXX 2      oc23    O  -0.550
O52     13.171604044   26.603188945   20.750274127 XXXX 2      oc23    O  -0.550
O53     -0.209436154   35.112945763   20.688302332 XXXX 2      oc23    O  -0.550
O54      5.803675443   36.739732266    8.313321950 XXXX 2      oc23    O  -0.550
O55     16.164574474   31.028291433   20.149500478 XXXX 2      oc23    O  -0.550
O56      5.398229607   34.816791254   14.928974371 XXXX 2      oc23    O  -0.550
O57      4.109366020   20.567169210    5.893534821 XXXX 2      oc23    O  -0.550
O58      8.632483064   39.453278861   11.452998779 XXXX 2      oc23    O  -0.550
O59      1.262578338   20.625796062   18.388211697 XXXX 2      oc23    O  -0.550
O60      8.816358458   33.480899142   21.011187193 XXXX 2      oc23    O  -0.550
O61     10.330218791   38.053373832   19.232310585 XXXX 2      oc23    O  -0.550
O62      1.336950935   36.758169843   17.212327795 XXXX 2      oc23    O  -0.550
O63     14.267521408   32.083562434   10.092430033 XXXX 2      oc23    O  -0.550
Si33    10.005281931   37.444447286    9.055784617 XXXX 2      sc4     Si  1.100
Si34    13.249734701   31.979693630   21.920609681 XXXX 2      sc4     Si  1.100
Si35    16.854924655   29.638911580   11.207405936 XXXX 2      sc4     Si  1.100
Si36     7.793814514   31.612399114    8.080179998 XXXX 2      sc4     Si  1.100
Si37     7.338620444   31.518556637    2.413828552 XXXX 2      sc4     Si  1.100
Si38    13.341369927   34.247473641    7.343744371 XXXX 2      sc4     Si  1.100
Si39    14.286469856   30.384853081    6.337808327 XXXX 2      sc4     Si  1.100
Si40     7.400543816   36.290525616    8.453453617 XXXX 2      sc4     Si  1.100
O64     12.149504045   23.644530740    5.050779750 XXXX 2      oc23    O  -0.550
O65     13.704324430   29.866496873   18.680760055 XXXX 2      oc23    O  -0.550
O66      2.898217380   31.813177563    6.070758312 XXXX 2      oc23    O  -0.550
O67      7.839410455   35.617835576    7.113935930 XXXX 2      oc23    O  -0.550
O68      2.606701323   35.192287108   13.002571934 XXXX 2      oc23    O  -0.550
O69     19.062078178   31.081406275    9.542154019 XXXX 2      oc23    O  -0.550
O70      1.686766418   34.911586973   19.168026860 XXXX 2      oc23    O  -0.550
O71     18.291298921   37.877453762   19.726589162 XXXX 2      oc23    O  -0.550
O72     16.967966544   26.360769131   11.409583977 XXXX 2      oc23    O  -0.550
O73     14.786010335   33.531984023    7.635922388 XXXX 2      oc23    O  -0.550
O74     17.842434215   33.961219513   16.259183396 XXXX 2      oc23    O  -0.550
O75     17.149262974   35.391245507   11.331890221 XXXX 2      oc23    O  -0.550
O76     15.952397758   35.718143306    5.277274203 XXXX 2      oc23    O  -0.550
O77     13.445704734   35.685784938    6.627264432 XXXX 2      oc23    O  -0.550
O78     13.237760811   30.637173276   14.832724677 XXXX 2      oc23    O  -0.550
Si41    -0.438624542   32.026345688   19.057588986 XXXX 2      sc4     Si  1.100
Si42     2.593361056   33.690377777   12.555037801 XXXX 2      sc4     Si  1.100
Si43     0.500072582   35.878900408   19.433544084 XXXX 2      sc4     Si  1.100
Si44    14.938762144   38.377952734    9.329635971 XXXX 2      sc4     Si  1.100
Si45    13.103834899   30.613929976   13.219079924 XXXX 2      sc4     Si  1.100
Si46    18.010587720   38.311287533    5.321279652 XXXX 2      sc4     Si  1.100
Si47    -0.089699651   26.721185981   13.508961051 XXXX 2      sc4     Si  1.100
Si48    18.315931542   33.315793182   14.904988989 XXXX 2      sc4     Si  1.100
O79      8.837685224   31.178523361   16.954269813 XXXX 2      oc23    O  -0.550
O80     16.279672086   32.873960575   11.743210232 XXXX 2      oc23    O  -0.550
O81      6.066931027   26.192679968    7.553993671 XXXX 2      oc23    O  -0.550
O82     13.149593039   35.559127228   15.930821247 XXXX 2      oc23    O  -0.550
O83      0.738651465   23.415080944   10.668414823 XXXX 2      oc23    O  -0.550
O84     15.690230108   35.282237592   16.179199522 XXXX 2      oc23    O  -0.550
O85      3.221033938   33.129928278    2.822716324 XXXX 2      oc23    O  -0.550
O86     12.766803400   35.292014496    2.335379162 XXXX 2      oc23    O  -0.550
O87      4.138231434   27.985982538   14.989552396 XXXX 2      oc23    O  -0.550
O88      5.258982367   25.813452641    5.118370251 XXXX 2      oc23    O  -0.550
O89     12.281292534   34.487653583   13.689183154 XXXX 2      oc23    O  -0.550
O90     10.432013681   33.370523103    9.679764445 XXXX 2      oc23    O  -0.550
O91     17.856061334   34.159555588   13.603911956 XXXX 2      oc23    O  -0.550
O92     12.355472745   38.596464942   17.883286708 XXXX 2      oc23    O  -0.550
O93     16.882176490   29.764077688   14.916674572 XXXX 2      oc23    O  -0.550
O94      1.292124989   37.272298201   19.709945525 XXXX 2      oc23    O  -0.550
Si49     7.217393512   36.590535076   19.834028424 XXXX 2      sc4     Si  1.100
Si50     2.969832743   22.339050999   14.115375918 XXXX 2      sc4     Si  1.100
Si51    10.678377141   24.784988484   18.950267924 XXXX 2      sc4     Si  1.100
Si52    15.358641287   21.760949237   12.054031693 XXXX 2      sc4     Si  1.100
Si53    18.566891842   37.709653535   15.401863737 XXXX 2      sc4     Si  1.100
Si54    11.125911815   39.215252357   18.562249426 XXXX 2      sc4     Si  1.100
Si55    13.120162931   36.587386414   20.744914336 XXXX 2      sc4     Si  1.100
Si56    10.167589664   38.485012183    2.432148091 XXXX 2      sc4     Si  1.100
O95      2.515206820   38.616517598   16.031343719 XXXX 2      oc23    O  -0.550
O96      5.620364141   36.467855793   16.996055501 XXXX 2      oc23    O  -0.550
O97     16.715273719   22.515590924   12.531312035 XXXX 2      oc23    O  -0.550
O98      8.669895165   27.686884338    6.382417746 XXXX 2      oc23    O  -0.550
O99     15.370776175   23.151282333   21.698649029 XXXX 2      oc23    O  -0.550
O100     6.882418336   26.879209304    9.912042239 XXXX 2      oc23    O  -0.550
O101    19.394029845   26.591174638    9.977766521 XXXX 2      oc23    O  -0.550
O102    -0.633265744   36.264548536   18.340098810 XXXX 2      oc23    O  -0.550
O103    17.704759705   39.039537258   21.994597034 XXXX 2      oc23    O  -0.550
O104    12.400221646   26.427103415   13.125852060 XXXX 2      oc23    O  -0.550
O105    11.974457683   31.411287277    8.830589304 XXXX 2      oc23    O  -0.550
O106     1.204658052   33.409512182   11.739173151 XXXX 2      oc23    O  -0.550
O107    13.196156166   37.354706713   22.120026564 XXXX 2      oc23    O  -0.550
O108     8.592611546   37.951742430    2.306058613 XXXX 2      oc23    O  -0.550
O109     0.808670145   33.322959784    3.900251080 XXXX 2      oc23    O  -0.550
O110     4.197695690   29.079827736   21.431856938 XXXX 2      oc24    O  -0.675
Si57     2.249842949   34.048890612    3.751828904 XXXX 2      sc4     Si  1.100
Si58    19.101707599   36.619495358    7.728172642 XXXX 2      sc4     Si  1.100
Si59    17.786679811   30.524352393   14.018701972 XXXX 2      sc4     Si  1.100
Si60    11.053909877   32.764621741    5.929560386 XXXX 2      sc4     Si  1.100
Si61    10.058093925   32.962419457    3.153651426 XXXX 2      sc4     Si  1.100
Si62     1.280570713   40.676557530    7.487608385 XXXX 2      sc4     Si  1.100
Si63     3.055033775   27.143089410    9.974862891 XXXX 2      sc4     Si  1.100
Si64    18.648891245   26.583425225    6.499859807 XXXX 2      sc4     Si  1.100
O111     2.514017661   29.717838042    7.519346750 XXXX 2      oc23    O  -0.550
O112    16.207267654   31.869194113    3.267158270 XXXX 2      oc23    O  -0.550
O113     8.517706847   32.286207855    3.424269528 XXXX 2      oc23    O  -0.550
O114     8.000145459   21.831797838   20.508835861 XXXX 2      oc23    O  -0.550
O115     6.352762910   20.300388630   18.992242872 XXXX 2      oc23    O  -0.550
O116    15.935222686   23.748234085    2.499973584 XXXX 2      oc23    O  -0.550
O117     8.413372040   27.610442232    3.882592897 XXXX 2      oc23    O  -0.550
O118     2.182537422   37.533982887    1.700846849 XXXX 2      oc23    O  -0.550
O119    14.271310858   31.015612821    7.750208082 XXXX 2      oc23    O  -0.550
O120    17.645657994   20.248475219    8.327023964 XXXX 2      oc23    O  -0.550
O121    14.753475618   34.071180670    0.959111673 XXXX 2      oc24    O  -0.675
O122     7.492501638   26.584958809   18.636684249 XXXX 2      oc23    O  -0.550
O123    16.856052839   26.525420696   14.108647685 XXXX 2      oc23    O  -0.550
O124    10.995573505   32.697047749    4.378994846 XXXX 2      oc23    O  -0.550
O125     1.237748375   35.721208003   14.956595801 XXXX 2      oc23    O  -0.550
O126    15.110785597   39.012318000   21.732832650 XXXX 2      oc23    O  -0.550
Si65    16.810739244   35.937816197    9.850803210 XXXX 2      sc4     Si  1.100
Si66     0.097217077   41.036436021   12.780799838 XXXX 2      sc4     Si  1.100
Si67    11.135546435   24.748402266   16.093243750 XXXX 2      sc4     Si  1.100
Si68     1.527224629   20.431686603   19.878009951 XXXX 2      sc4     Si  1.100
Si69    12.909316247   36.780375937    5.537150208 XXXX 2      sc4     Si  1.100
Si70     0.325026633   21.953526348   15.182286778 XXXX 2      sc4     Si  1.100
Si71    16.489027741   40.100735152    7.352989184 XXXX 2      sc4     Si  1.100
Si72    11.320148120   40.458914600   21.260723543 XXXX 2      sc4     Si  1.100
O127    17.051095334   30.560938611   12.569107781 XXXX 2      oc23    O  -0.550
O128     5.370452728   22.211109130   19.751968316 XXXX 2      oc23    O  -0.550
O129    15.473538252   36.894480980    9.880053403 XXXX 2      oc23    O  -0.550
O130     1.415544610   40.189774376   12.988714432 XXXX 2      oc23    O  -0.550
O131     0.579557225   28.145991370   13.781962141 XXXX 2      oc23    O  -0.550
O132     3.821421945   39.511614308   13.974083010 XXXX 2      oc23    O  -0.550
O133     6.128088460   38.121819572    1.508537423 XXXX 2      oc23    O  -0.550
O134     8.496420331   37.477055077    8.657024198 XXXX 2      oc23    O  -0.550
O135    18.734036108   37.558967212   11.623352971 XXXX 2      oc23    O  -0.550
O136     4.935093492   33.490303146    6.449619899 XXXX 2      oc23    O  -0.550
O137    15.370452979   41.063615765   12.415042978 XXXX 2      oc23    O  -0.550
O138    15.968039749   38.831300801    8.163185351 XXXX 2      oc23    O  -0.550
O139     1.630132235   39.163337711    3.490371276 XXXX 2      oc23    O  -0.550
O140    13.024093065   29.148688358   12.632329819 XXXX 2      oc23    O  -0.550
O141    18.371646298   32.437143601   19.172749218 XXXX 2      oc23    O  -0.550
O142     0.136321604   38.378325635   21.464719255 XXXX 2      oc23    O  -0.550
Si73     3.130591776   36.421823589    2.346475858 XXXX 2      sc4     Si  1.100
Si74     4.912033300   29.293326780   14.578610202 XXXX 2      sc4     Si  1.100
Si75    17.283349883   24.625019165    2.444518247 XXXX 2      sc4     Si  1.100
Si76    18.610310712   37.817169848   21.351543089 XXXX 2      sc4     Si  1.100
Si77     4.334846658   24.939114874   17.758094281 XXXX 2      sc4     Si  1.100
Si78    18.431836544   25.468159247   20.666961666 XXXX 2      sc4     Si  1.100
Si79    -0.540862776   22.652731826   11.305331533 XXXX 2      sc4     Si  1.100
Si80     4.118517648   21.995827079   16.801975191 XXXX 2      sc4     Si  1.100
O143    18.021996918   30.015568117    2.838935005 XXXX 2      oc23    O  -0.550
O144     2.218510307   34.120359067   21.555609158 XXXX 2      oc24    O  -0.675
O145     0.415967895   22.388313361    2.921232919 XXXX 2      oc23    O  -0.550
O146     8.181118692   21.977058584    6.916229424 XXXX 2      oc23    O  -0.550
O147    15.914702710   33.192449594    5.358981119 XXXX 2      oc23    O  -0.550
O148     8.310569113   24.522432051   17.190301149 XXXX 2      oc23    O  -0.550
O149    12.641707121   40.074054254   22.090680687 XXXX 2      oc23    O  -0.550
O150    12.177200425   27.794773552   18.877839681 XXXX 2      oc23    O  -0.550
O151    14.166775405   35.354743253   20.527981390 XXXX 2      oc23    O  -0.550
O152    11.127847389   20.623683372   15.972820116 XXXX 2      oc23    O  -0.550
O153    19.882967315   32.958813930   15.006998102 XXXX 2      oc23    O  -0.550
O154    19.115575013   20.878407663   17.488421777 XXXX 2      oc23    O  -0.550
O155     1.411730831   30.805220457   21.705684723 XXXX 2      oc24    O  -0.675
O156     2.391291289   20.467691245    7.773022726 XXXX 2      oc23    O  -0.550
O157     9.963757785   27.002841828   12.556194469 XXXX 2      oc23    O  -0.550
O158     6.314866615   24.504866221    9.399893000 XXXX 2      oc23    O  -0.550
Si81     3.022818351   40.368801127   12.903844268 XXXX 2      sc4     Si  1.100
Si82     6.180296113   30.304432548    5.775211341 XXXX 2      sc4     Si  1.100
Si83     5.175087638   20.605991595    4.712644319 XXXX 2      sc4     Si  1.100
Si84     0.460971284   29.665676442   13.230529811 XXXX 2      sc4     Si  1.100
Si85     3.150108221   30.292126836    6.134395126 XXXX 2      sc4     Si  1.100
Si86     6.307851809   25.339056694    6.151367528 XXXX 2      sc4     Si  1.100
Si87    12.583129253   22.166403068    4.464337809 XXXX 2      sc4     Si  1.100
Si88     2.376322424   23.559346466   10.378793313 XXXX 2      sc4     Si  1.100
O159     1.697482065   27.386832896   17.903329992 XXXX 2      oc23    O  -0.550
O160    17.594982220   29.603236621    8.047681426 XXXX 2      oc23    O  -0.550
O161    10.529858125   24.494383028   12.124618696 XXXX 2      oc23    O  -0.550
O162     0.071261211   28.813791723    9.159966352 XXXX 2      oc23    O  -0.550
O163     2.573336688   22.693582938    6.696605457 XXXX 2      oc23    O  -0.550
O164    14.269658831   32.930142584   21.330483851 XXXX 2      oc23    O  -0.550
O165     9.843135796   22.274707164   17.561700635 XXXX 2      oc23    O  -0.550
O166    18.357255041   22.767207301    7.513647838 XXXX 2      oc23    O  -0.550
O167     7.854367606   39.555574569   13.823087177 XXXX 2      oc23    O  -0.550
O168    18.765845134   27.096849764    5.033121566 XXXX 2      oc23    O  -0.550
O169    11.606786192   40.175396721   19.723071315 XXXX 2      oc23    O  -0.550
O170    15.702364997   27.973884267    8.764062249 XXXX 2      oc23    O  -0.550
O171     0.225790995   32.857844364    6.508660844 XXXX 2      oc23    O  -0.550
O172     3.918479724   23.554540743   13.564793500 XXXX 2      oc23    O  -0.550
O173    13.076663563   24.734357998   11.831574673 XXXX 2      oc23    O  -0.550
O174     1.704629785   26.833053622    9.173115712 XXXX 2      oc23    O  -0.550
Si89     5.837459091   30.133814577   11.806597257 XXXX 2      sc4     Si  1.100
Si90    13.495211473   27.686262014   13.124907869 XXXX 2      sc4     Si  1.100
Si91     7.248032903   25.757562037   17.272197325 XXXX 2      sc4     Si  1.100
Si92    17.801998606   28.675077725   18.279473646 XXXX 2      sc4     Si  1.100
Si93    10.304296988   31.005087646   12.487235526 XXXX 2      sc4     Si  1.100
Si94     1.723581837   36.270307501   13.596593428 XXXX 2      sc4     Si  1.100
Si95     9.803264278   21.792438327    6.883039155 XXXX 2      sc4     Si  1.100
Si96     7.748299072   32.277050805   12.529895047 XXXX 2      sc4     Si  1.100
O175     6.616179492   29.067107142    4.796782771 XXXX 2      oc23    O  -0.550
O176     4.153672178   31.002934208    8.814229030 XXXX 2      oc23    O  -0.550
O177     7.954307421   27.959506612   13.830594262 XXXX 2      oc23    O  -0.550
O178     6.060158318   34.918341161   11.202377526 XXXX 2      oc23    O  -0.550
O179     6.321115482   29.169568309   15.410220734 XXXX 2      oc23    O  -0.550
O180    13.482835089   38.167560370    8.618260165 XXXX 2      oc23    O  -0.550
O181    12.338862366   38.029965073    6.266169775 XXXX 2      oc23    O  -0.550
O182     4.920862332   33.369238942    9.605423197 XXXX 2      oc23    O  -0.550
O183    17.388369530   36.057223340   17.932981218 XXXX 2      oc23    O  -0.550
O184    17.302820972   29.848182773   17.484502895 XXXX 2      oc23    O  -0.550
O185    16.722289126   27.656017572   17.999932878 XXXX 2      oc23    O  -0.550
O186     3.791859075   33.653132191   11.652367116 XXXX 2      oc23    O  -0.550
O187    15.509499573   28.941899052   11.095032543 XXXX 2      oc23    O  -0.550
O188    13.065456213   24.552056639   22.160490245 XXXX 2      oc23    O  -0.550
O189     1.440805903   22.661723417   14.406579052 XXXX 2      oc23    O  -0.550
O190    10.340780949   38.781334622   15.308210917 XXXX 2      oc23    O  -0.550
Si97    16.546798219   28.568307212    7.468882623 XXXX 2      sc4     Si  1.100
Si98     6.839483059   34.115884263   14.762255170 XXXX 2      sc4     Si  1.100
Si99     4.209830578   22.088180424   20.882525466 XXXX 2      sc4     Si  1.100
Si100   18.407366122   37.100976412   18.287477451 XXXX 2      sc4     Si  1.100
Si101   17.230093344   24.681697551   18.041931747 XXXX 2      sc4     Si  1.100
Si102    1.701021608   38.271431645   20.825133906 XXXX 2      sc4     Si  1.100
Si103   15.665477340   26.988755578   18.915990025 XXXX 2      sc4     Si  1.100
Si104   13.710290951   31.614471057   15.978792717 XXXX 2      sc4     Si  1.100
O191    12.583532948   31.636096809   17.169266536 XXXX 2      oc23    O  -0.550
O192    -0.026178482   29.243069195    3.769156410 XXXX 2      oc23    O  -0.550
O193    16.010289585   20.443205767   22.068347988 XXXX 2      oc23    O  -0.550
O194     6.421701089   20.409355798   14.963937547 XXXX 2      oc23    O  -0.550
O195     3.720667231   23.472670591   17.474634632 XXXX 2      oc23    O  -0.550
O196    14.827936974   27.297299765   12.601191247 XXXX 2      oc23    O  -0.550
O197     9.953557871   36.796783553   13.613425621 XXXX 2      oc23    O  -0.550
O198    11.772519928   31.355769574   12.880307059 XXXX 2      oc23    O  -0.550
O199    14.239140188   26.709006216   18.464700942 XXXX 2      oc23    O  -0.550
O200    11.693664782   26.614748856    3.534966315 XXXX 2      oc23    O  -0.550
O201    17.991478275   36.252904661   15.493839951 XXXX 2      oc23    O  -0.550
O202     4.384958039   40.085073337   20.131676252 XXXX 2      oc23    O  -0.550
O203    15.216369936   31.194185176   16.481498648 XXXX 2      oc23    O  -0.550
O204    12.514836265   21.986008192   17.867210148 XXXX 2      oc23    O  -0.550
O205     2.303590591   25.151618694    6.033735980 XXXX 2      oc23    O  -0.550
O206    15.310505430   28.751603795   16.482136081 XXXX 2      oc23    O  -0.550
Si105   19.423540451   30.626608589    3.321338739 XXXX 2      sc4     Si  1.100
Si106   16.826341587   34.436445225    5.637223098 XXXX 2      sc4     Si  1.100
Si107    5.823106883   26.000352281    9.072168636 XXXX 2      sc4     Si  1.100
Si108    0.056308457   33.810199803   10.682815480 XXXX 2      sc4     Si  1.100
Si109   19.424628986   33.190293686    4.847964627 XXXX 2      sc4     Si  1.100
Si110    9.625758499   23.748898391   10.970618967 XXXX 2      sc4     Si  1.100
Si111   10.495389036   31.790556587    9.515146806 XXXX 2      sc4     Si  1.100
Si112    0.300095558   30.035124396   10.209666498 XXXX 2      sc4     Si  1.100
O207    10.541830814   35.949003208    8.882833550 XXXX 2      oc23    O  -0.550
O208     0.345735916   33.287329277    9.195071297 XXXX 2      oc23    O  -0.550
O209     9.966378200   29.514034408   13.072758605 XXXX 2      oc23    O  -0.550
O210    18.288356511   37.122520669    6.389804653 XXXX 2      oc23    O  -0.550
O211     8.076340541   25.337730551    2.901945269 XXXX 2      oc24    O  -0.675
O212     7.470409534   32.628767469   18.779535564 XXXX 2      oc23    O  -0.550
O213     6.055319981   33.013089456   20.759481036 XXXX 2      oc23    O  -0.550
O214     7.005055798   35.023205190   19.587586372 XXXX 2      oc23    O  -0.550
O215     1.793927092   30.471030110   13.371869859 XXXX 2      oc23    O  -0.550
O216    15.004636564   27.020037227    1.864615280 XXXX 2      oc24    O  -0.675
O217    15.311029273   28.299371959   20.091425050 XXXX 2      oc23    O  -0.550
O218    13.967781262   22.000425360    7.955214120 XXXX 2      oc23    O  -0.550
O219    12.674603481   34.434496759    8.714108121 XXXX 2      oc23    O  -0.550
O220    -0.332515158   35.072633011    7.476167995 XXXX 2      oc23    O  -0.550
O221    19.351537311   30.187097348   14.050005883 XXXX 2      oc23    O  -0.550
O222    16.982157154   34.448750937    7.084565339 XXXX 2      oc23    O  -0.550
Si113    2.544527743   31.416673341   14.452190046 XXXX 2      sc4     Si  1.100
Si114   12.924677093   34.958488455   12.273844348 XXXX 2      sc4     Si  1.100
Si115   17.812238769   25.599457220   15.023122504 XXXX 2      sc4     Si  1.100
Si116    4.435190168   37.079516119    9.256522451 XXXX 2      sc4     Si  1.100
Si117   16.017182441   26.258102992   12.714390631 XXXX 2      sc4     Si  1.100
Si118    4.658533986   34.471994237   10.651605847 XXXX 2      sc4     Si  1.100
Si119    0.712664557   29.882571102   20.611011017 XXXX 2      sc4     Si  1.100
Si120    7.422434674   39.045091251   12.457490021 XXXX 2      sc4     Si  1.100
O223     6.136111303   29.182204940   10.615155326 XXXX 2      oc23    O  -0.550
O224    10.812787247   39.060585138   12.741186069 XXXX 2      oc23    O  -0.550
O225     0.812439545   32.635603153   19.814197618 XXXX 2      oc23    O  -0.550
O226     5.052893519   31.300913707   11.145907643 XXXX 2      oc23    O  -0.550
O227    17.539549811   39.607820133    6.216968609 XXXX 2      oc23    O  -0.550
O228    13.709000568   37.804824623   19.826804173 XXXX 2      oc23    O  -0.550
O229     6.691043942   31.470494471    9.185250172 XXXX 2      oc23    O  -0.550
O230     3.507801169   28.662483076    9.648908708 XXXX 2      oc23    O  -0.550
O231     3.937230229   30.564168768   14.959003415 XXXX 2      oc23    O  -0.550
O232    14.114889747   37.228960264    4.617174179 XXXX 2      oc23    O  -0.550
O233    18.842564060   33.384070993   11.416453628 XXXX 2      oc23    O  -0.550
O234     3.393629593   21.683222971   15.490747060 XXXX 2      oc23    O  -0.550
O235     0.913532925   34.057052438   16.753366992 XXXX 2      oc23    O  -0.550
O236     4.165282623   25.370380325   19.339821610 XXXX 2      oc23    O  -0.550
O237    10.596860730   24.325382605    3.063162558 XXXX 2      oc23    O  -0.550
O238    13.140843905   21.082500233    5.532403929 XXXX 2      oc23    O  -0.550
Si121    4.972263796   29.183158182   19.947464910 XXXX 2      sc4     Si  1.100
Si122    4.104971929   26.374897363   15.000317007 XXXX 2      sc4     Si  1.100
Si123    4.831444126   33.186564683    2.606256177 XXXX 2      sc4     Si  1.100
Si124   18.060013961   38.712474000   12.624232440 XXXX 2      sc4     Si  1.100
Si125   16.740712530   30.714277219    2.211650863 XXXX 2      sc4     Si  1.100
Si126    3.460177140   21.446026232    7.125643060 XXXX 2      sc4     Si  1.100
Si127    3.396161400   38.313112522   14.765489479 XXXX 2      sc4     Si  1.100
Si128   -0.315382138   23.641962419    3.594859767 XXXX 2      sc4     Si  1.100
O239    19.387941976   38.675225945    4.544439180 XXXX 2      oc23    O  -0.550
O240    18.906946249   40.073017048   12.418560825 XXXX 2      oc23    O  -0.550
O241     4.107068200   31.688510302   21.802381887 XXXX 2      oc24    O  -0.675
O242     4.645149564   20.880768542   21.855311410 XXXX 2      oc23    O  -0.550
O243     2.816668829   32.825029132   13.810008527 XXXX 2      oc23    O  -0.550
O244     0.365513155   23.932441928    7.355493979 XXXX 2      oc23    O  -0.550
O245    17.377766522   25.502755017   16.595713282 XXXX 2      oc23    O  -0.550
O246     8.535082565   35.507047123   11.888398804 XXXX 2      oc23    O  -0.550
O247     1.441821750   27.239915090    4.634880206 XXXX 2      oc23    O  -0.550
O248    -0.484381480   21.190720365   14.080271326 XXXX 2      oc23    O  -0.550
O249    14.563028762   37.246652040   17.389811607 XXXX 2      oc23    O  -0.550
O250    14.379152767   23.700505308   17.105737741 XXXX 2      oc23    O  -0.550
O251     0.040810249   20.777272637   20.375522133 XXXX 2      oc23    O  -0.550
O252    11.317488057   21.410931615    3.732587689 XXXX 2      oc23    O  -0.550
O253     1.334818319   39.639059800    8.675461936 XXXX 2      oc23    O  -0.550
Si129    1.558964420   38.129527002    8.944568067 XXXX 2      sc4     Si  1.100
Si130   10.230077128   41.169183613    3.959908133 XXXX 2      sc4     Si  1.100
Si131    4.657768046   35.818490548   15.865923307 XXXX 2      sc4     Si  1.100
Si132   18.331654032   27.117939626   11.062784090 XXXX 2      sc4     Si  1.100
Si133    2.125709651   39.080183398    1.977460768 XXXX 2      sc4     Si  1.100
Si134   11.724021226   25.340632260    2.590462452 XXXX 2      sc4     Si  1.100
Si135    6.814649191   21.755397714   19.370464870 XXXX 2      sc4     Si  1.100
Si136   18.659655252   21.588881647    8.542762073 XXXX 2      sc4     Si  1.100
O254     2.608906628   29.638951092    4.766305554 XXXX 2      oc23    O  -0.550
O255     4.161210827   23.507473802   21.534763805 XXXX 2      oc23    O  -0.550
O256    10.334411935   23.306776848   19.698519559 XXXX 2      oc23    O  -0.550
O257     2.531288400   24.186419184    8.841968308 XXXX 2      oc23    O  -0.550
O258     7.517859950   37.428000157   12.825796616 XXXX 2      oc23    O  -0.550
O259     2.715877770   21.617552993   20.281020105 XXXX 2      oc23    O  -0.550
O260     3.119948818   21.164370385   13.018224241 XXXX 2      oc23    O  -0.550
O261    18.604948533   27.443138382    2.259338794 XXXX 2      oc24    O  -0.675
O262    14.312311160   31.444018545   12.597814818 XXXX 2      oc23    O  -0.550
O263    14.038492817   34.030122117   11.732988073 XXXX 2      oc23    O  -0.550
O264    10.025882405   26.042904905   19.616458044 XXXX 2      oc23    O  -0.550
O265    13.968789298   28.202753721   14.513688340 XXXX 2      oc23    O  -0.550
O266    17.586718482   31.986114431   14.640226695 XXXX 2      oc23    O  -0.550
O267     0.496500712   36.391453200   12.705892216 XXXX 2      oc23    O  -0.550
O268    10.564004018   21.222498391   21.469913004 XXXX 2      oc23    O  -0.550
Si137   19.269698905   23.654971950    6.548539243 XXXX 2      sc4     Si  1.100
Si138    8.482794413   36.285223516   13.295215274 XXXX 2      sc4     Si  1.100
Si139   16.993485853   32.592722080   20.062411257 XXXX 2      sc4     Si  1.100
Si140   13.939359191   24.082384920   12.991948740 XXXX 2      sc4     Si  1.100
Si141    1.936601087   25.700676209    4.446206827 XXXX 2      sc4     Si  1.100
Si142   10.956145931   21.374224390    9.783827981 XXXX 2      sc4     Si  1.100
Si143    1.093365058   38.194201756   16.568092556 XXXX 2      sc4     Si  1.100
Si144    0.021665041   36.901771059   11.303112475 XXXX 2      sc4     Si  1.100
O269     2.980132981   25.852730656   14.002577569 XXXX 2      oc23    O  -0.550
O270     2.718405371   26.997413782   11.570613061 XXXX 2      oc23    O  -0.550
O271     3.517948218   39.833624889   11.541339299 XXXX 2      oc23    O  -0.550
O272     4.928159485   38.109390382   10.322583047 XXXX 2      oc23    O  -0.550
O273    14.191810520   38.863120810   12.835381342 XXXX 2      oc23    O  -0.550
O274    14.808264037   39.452863978   10.474688409 XXXX 2      oc23    O  -0.550
O275    13.710975791   22.425270010    3.298415042 XXXX 2      oc23    O  -0.550
O276     6.039920088   39.725402287   12.015314272 XXXX 2      oc23    O  -0.550
O277     0.469558332   39.372485427   17.466537252 XXXX 2      oc23    O  -0.550
O278    16.778930218   30.630169664   10.010770256 XXXX 2      oc23    O  -0.550
O279     0.023408817   29.559320811   11.727038690 XXXX 2      oc23    O  -0.550
O280    17.226707590   25.764150767    3.472617407 XXXX 2      oc23    O  -0.550
O281    13.583218247   24.254492023   14.550351339 XXXX 2      oc23    O  -0.550
O282    16.101964459   25.435262519   19.004897270 XXXX 2      oc23    O  -0.550
O283     1.666298557   31.748048414   15.693515044 XXXX 2      oc23    O  -0.550
O284     0.580028879   37.434381446    7.907915791 XXXX 2      oc23    O  -0.550
Si145    4.802014319   32.125327276   20.373279154 XXXX 2      sc4     Si  1.100
Si146   15.246203739   39.576580467   11.974166018 XXXX 2      sc4     Si  1.100
Si147   16.414001693   39.895812817   21.397270875 XXXX 2      sc4     Si  1.100
Si148    7.057182952   28.410743223    3.418131589 XXXX 2      sc4     Si  1.100
Si149   13.867800597   22.457378954    9.494725706 XXXX 2      sc4     Si  1.100
Si150    7.364825194   39.852059997   15.222018746 XXXX 2      sc4     Si  1.100
Si151    6.552321145   21.990152079   15.273342020 XXXX 2      sc4     Si  1.100
O285     5.201211288   38.976354106   17.861166488 XXXX 2      oc23    O  -0.550
O286    11.383080131   23.246203998   15.975156670 XXXX 2      oc23    O  -0.550
O287    15.361059854   24.854261519   12.740359376 XXXX 2      oc23    O  -0.550
O288    12.763699992   40.422869211    7.552747298 XXXX 2      oc23    O  -0.550
O289     5.890392434   24.940687970   17.400718339 XXXX 2      oc23    O  -0.550
O290     5.620767235   22.288047613   16.376207383 XXXX 2      oc23    O  -0.550
O291    17.841708525   28.948944646   19.851379851 XXXX 2      oc23    O  -0.550
O292     5.761586604   24.377917106   11.905325627 XXXX 2      oc23    O  -0.550
O293     5.826654836   27.207722181    3.056387185 XXXX 2      oc23    O  -0.550
O294     1.018270676   39.787427226    6.032894147 XXXX 2      oc23    O  -0.550
O295    19.608907475   28.713898876   21.506457803 XXXX 2      oc23    O  -0.550
O296    -0.416613537   30.676325345   19.818943897 XXXX 2      oc23    O  -0.550
O297     8.918113099   33.837295583   17.186216929 XXXX 2      oc23    O  -0.550
O298    11.028994909   37.161633225    2.390669863 XXXX 2      oc23    O  -0.550
O299    13.646189906   28.513285886    3.640871796 XXXX 2      oc23    O  -0.550
O300     5.761264009   31.845039553    2.720023341 XXXX 2      oc23    O  -0.550
Si152   16.558489763   21.962722910   22.038602483 XXXX 2      sc4     Si  1.100
Si153   12.953542507   26.492938851   19.270059895 XXXX 2      sc4     Si  1.100
Si154    1.961664737   24.027610548    7.254898512 XXXX 2      sc4     Si  1.100
Si155    8.790275057   26.680915211    5.217262552 XXXX 2      sc4     Si  1.100
Si156    6.504668881   23.717700707   10.708123222 XXXX 2      sc4     Si  1.100
Si157   10.856367114   25.783331675   13.154252340 XXXX 2      sc4     Si  1.100
Si158   15.057207062   32.471408453    4.189778312 XXXX 2      sc4     Si  1.100
Si159    4.999919627   25.796548647    3.593821299 XXXX 2      sc4     Si  1.100
O301    14.594675589   39.754695958   18.073234955 XXXX 2      oc23    O  -0.550
O302     5.323647503   30.687015979   19.717145854 XXXX 2      oc23    O  -0.550
O303     2.210846404   35.512598647    3.243999581 XXXX 2      oc23    O  -0.550
O304     7.205742818   30.805884763   12.276228745 XXXX 2      oc23    O  -0.550
O305    17.338701794   24.200216497   14.395908719 XXXX 2      oc23    O  -0.550
O306    10.612624070   39.621864401    3.560132991 XXXX 2      oc23    O  -0.550
O307    17.881902639   21.798073815   15.141515637 XXXX 2      oc23    O  -0.550
O308    10.981262747   40.422330851   10.508589546 XXXX 2      oc23    O  -0.550
O309     3.093522396   37.608725951   21.670178392 XXXX 2      oc23    O  -0.550
O310    18.982576639   31.840772190    4.229344238 XXXX 2      oc23    O  -0.550
O311    13.531736285   29.384020595    9.533773453 XXXX 2      oc23    O  -0.550
O312     2.041604965   28.461371240    2.486374995 XXXX 2      oc24    O  -0.675
O313     7.276535472   30.590810153    6.921916639 XXXX 2      oc23    O  -0.550
O314    10.683134978   21.457917062    8.166249572 XXXX 2      oc23    O  -0.550
O315     9.993993481   22.230870380   10.649882454 XXXX 2      oc23    O  -0.550
O316    11.488946817   24.936546554    7.395230784 XXXX 2      oc23    O  -0.550
Si160   12.170588713   32.107551535   18.666218684 XXXX 2      sc4     Si  1.100
Si161   12.601553858   26.068136184   22.107183609 XXXX 2      sc4     Si  1.100
Si162    5.371984607   24.157335424   13.433344934 XXXX 2      sc4     Si  1.100
Si163    7.541040590   34.676874590   10.931099476 XXXX 2      sc4     Si  1.100
Si164   12.329308244   38.814685744    7.694467625 XXXX 2      sc4     Si  1.100
Si165   17.655413963   30.943645519    8.828889481 XXXX 2      sc4     Si  1.100
Si166    9.048692906   28.221149316   12.706270033 XXXX 2      sc4     Si  1.100
Si167   12.036541453   28.205613447    3.588555786 XXXX 2      sc4     Si  1.100
O317     5.001653053   40.742020066    9.822072604 XXXX 2      oc23    O  -0.550
O318     4.455710444   37.103712661   14.908482914 XXXX 2      oc23    O  -0.550
O319    11.114139772   34.064011599   16.074215717 XXXX 2      oc23    O  -0.550
O320     7.757289102   33.132249645   11.210286349 XXXX 2      oc23    O  -0.550
O321    10.036808009   24.397473384    9.540218148 XXXX 2      oc23    O  -0.550
O322    16.542605074   40.262361532   19.819439209 XXXX 2      oc23    O  -0.550
O323    18.005629237   28.651172588   10.878572044 XXXX 2      oc23    O  -0.550
O324    17.772891695   21.887318011   20.927828296 XXXX 2      oc23    O  -0.550
O325     9.729327366   26.618062977    8.499488864 XXXX 2      oc23    O  -0.550
O326    -0.157066302   31.844335735   17.526501061 XXXX 2      oc23    O  -0.550
O327     5.359124630   25.589346928   14.342035710 XXXX 2      oc23    O  -0.550
O328     7.694519291   35.131840205    9.434384080 XXXX 2      oc23    O  -0.550
O329    17.984101225   26.884138503   21.210107356 XXXX 2      oc23    O  -0.550
O330    13.868082943   24.086402860    9.499730898 XXXX 2      oc23    O  -0.550
O331     7.281575055   22.534401402   18.107821017 XXXX 2      oc23    O  -0.550
O332     5.167870984   29.347436846   13.009512646 XXXX 2      oc23    O  -0.550
Si168    5.072687805   40.389226683   18.666477597 XXXX 2      sc4     Si  1.100
Si169    9.274294293   29.709221821   17.442433669 XXXX 2      sc4     Si  1.100
Si170   13.847361120   22.721385007   18.329617034 XXXX 2      sc4     Si  1.100
Si171    8.324558476   34.145093968    6.630982664 XXXX 2      sc4     Si  1.100
Si172    7.522214092   37.191796173    1.422203835 XXXX 2      sc4     Si  1.100
Si173   15.545420043   36.750669854    4.178350938 XXXX 2      sc4     Si  1.100
Si174   18.119235819   28.398933888   21.240632416 XXXX 2      sc4     Si  1.100
Si175   16.277132170   33.615968101    8.128798048 XXXX 2      sc4     Si  1.100
O333     0.796104003   20.740935843   15.967366750 XXXX 2      oc23    O  -0.550
O334    10.782550950   32.327723273    1.950264998 XXXX 2      oc24    O  -0.675
O335    10.174402022   39.309964111   21.765151811 XXXX 2      oc24    O  -0.675
O336     5.314495875   33.901143041    3.926456225 XXXX 2      oc23    O  -0.550
O337    13.271060866   33.285464775   19.044746031 XXXX 2      oc23    O  -0.550
O338     8.379668890   29.200188122   18.765630219 XXXX 2      oc23    O  -0.550
O339     4.687883294   29.990586262    6.359331613 XXXX 2      oc23    O  -0.550
O340    10.480431885   25.385419816   14.755550858 XXXX 2      oc23    O  -0.550
O341     8.553385220   27.515811972   20.732496337 XXXX 2      oc23    O  -0.550
O342    18.088999523   36.337634539   21.760831896 XXXX 2      oc23    O  -0.550
O343    15.848908789   33.472156975   19.418483478 XXXX 2      oc23    O  -0.550
O344     3.320099380   25.635421114    3.481517559 XXXX 2      oc23    O  -0.550
O345    10.201453210   34.563268393    2.939316059 XXXX 2      oc23    O  -0.550
O346     6.137683432   31.709516199    5.008357332 XXXX 2      oc23    O  -0.550
O347     7.384176135   29.793410870    2.370744779 XXXX 2      oc23    O  -0.550
O348     4.242445192   26.154562636    9.517531203 XXXX 2      oc23    O  -0.550
Si176    5.970538564   33.295780039    5.252934925 XXXX 2      sc4     Si  1.100
Si177    9.902962597   32.423884647   21.750113720 XXXX 2      sc4     Si  1.100
Si178    2.966119588   30.018509338    9.010953529 XXXX 2      sc4     Si  1.100
Si179    5.192503605   31.827513236    9.607264438 XXXX 2      sc4     Si  1.100
Si180    2.076884448   33.601839869   19.959149790 XXXX 2      sc4     Si  1.100
Si181    2.532683311   28.237184032   19.009594299 XXXX 2      sc4     Si  1.100
Si182    7.364018404   33.536708251   20.092818117 XXXX 2      sc4     Si  1.100
Si183   13.744599043   37.509909822   13.539911066 XXXX 2      sc4     Si  1.100
O349    13.794830271   30.495061192   21.225688603 XXXX 2      oc23    O  -0.550
O350     7.913186370   22.343607299   15.784428869 XXXX 2      oc23    O  -0.550
O351     7.725480677   33.094463231    7.772411324 XXXX 2      oc23    O  -0.550
O352     3.568696681   32.963165258   19.665727599 XXXX 2      oc23    O  -0.550
O353    10.240921633   30.964485958   10.873826820 XXXX 2      oc23    O  -0.550
O354     6.207750396   28.376105471   20.071193210 XXXX 2      oc23    O  -0.550
O355    18.314158166   38.126956212   16.977216728 XXXX 2      oc23    O  -0.550
O356    19.366615811   25.857578361   14.637109883 XXXX 2      oc23    O  -0.550
O357     7.646584680   25.601405686    5.390167534 XXXX 2      oc23    O  -0.550
O358     7.408445311   33.816208191    5.404614627 XXXX 2      oc23    O  -0.550
O359    14.936786920   21.521804032   18.694972156 XXXX 2      oc23    O  -0.550
O360    18.568906714   22.184052862   10.061645356 XXXX 2      oc23    O  -0.550
O361    10.905107313   38.562158108    8.232316317 XXXX 2      oc23    O  -0.550
O362    10.281881086   39.947727463   17.559292318 XXXX 2      oc23    O  -0.550
O363     9.815318668   30.965604659   21.347482087 XXXX 2      oc23    O  -0.550
O364    10.967394132   29.727948334   17.740151855 XXXX 2      oc23    O  -0.550
Si184    8.013852476   32.598935440   17.286668340 XXXX 2      sc4     Si  1.100
Si185   13.498920423   30.954459630    9.108406679 XXXX 2      sc4     Si  1.100
Si186    7.624210229   27.967130078   19.527574721 XXXX 2      sc4     Si  1.100
Si187    8.043363082   21.523668534    1.975359910 XXXX 2      sc4     Si  1.100
Si188   10.065431327   27.141970709   20.754523686 XXXX 2      sc4     Si  1.100
Si189   12.508426401   34.287993835   15.289513561 XXXX 2      sc4     Si  1.100
Si190   12.443156322   29.032222436   17.958288608 XXXX 2      sc4     Si  1.100
Si191    6.296967055   37.866019797   17.330154554 XXXX 2      sc4     Si  1.100
O365    11.820131943   35.151477978   11.107969776 XXXX 2      oc23    O  -0.550
O366     9.949445826   33.872721118    6.374459542 XXXX 2      oc23    O  -0.550
O367     3.253443101   22.203940058   10.340619399 XXXX 2      oc23    O  -0.550
O368     4.263731408   37.374593910    2.985492722 XXXX 2      oc23    O  -0.550
O369     1.113014491   37.769979430   10.473956697 XXXX 2      oc23    O  -0.550
O370     1.807888071   30.558370291    9.898491141 XXXX 2      oc23    O  -0.550
O371    18.178821724   34.240719452    4.853276576 XXXX 2      oc23    O  -0.550
O372    11.903946774   25.897313242    9.861308908 XXXX 2      oc23    O  -0.550
O373    12.912219008   28.243562851   16.708535553 XXXX 2      oc23    O  -0.550
O374     4.528035279   21.878037484    8.213588180 XXXX 2      oc23    O  -0.550
O375     6.927530684   38.468565054   15.971780944 XXXX 2      oc23    O  -0.550
O376    18.172410659   36.360754362    9.111782757 XXXX 2      oc23    O  -0.550
O377     3.135421402   37.743587468    8.530249971 XXXX 2      oc23    O  -0.550
O378     9.236760844   31.954254910   13.011071052 XXXX 2      oc23    O  -0.550
O379    13.078275941   21.970761259   21.752617020 XXXX 2      oc24    O  -0.675
O380    10.943447552   26.466670367   21.975427584 XXXX 2      oc23    O  -0.550
Si192   10.082645447   40.145317737   16.043312841 XXXX 2      sc4     Si  1.100
Si193   10.229351438   36.575703025   19.620683682 XXXX 2      sc4     Si  1.100
Si194    5.021407390   38.787631946    2.574574449 XXXX 2      sc4     Si  1.100
Si195   14.416928314   33.835929928   20.050678534 XXXX 2      sc4     Si  1.100
Si196    0.049769402   20.892575407    2.413993187 XXXX 2      sc4     Si  1.100
Si197    0.150122965   27.258063731    8.942278125 XXXX 2      sc4     Si  1.100
Si198   10.384401667   34.216150010   17.479096668 XXXX 2      sc4     Si  1.100
Si199    9.351174216   28.036694519    7.745647194 XXXX 2      sc4     Si  1.100
O381     5.631289144   24.290041035    3.084055753 XXXX 2      oc23    O  -0.550
O382    10.275592571   35.685577497   18.240120198 XXXX 2      oc23    O  -0.550
O383    -1.205453353   20.861876570    1.352323920 XXXX 2      oc24    O  -0.675
O384     1.743787627   29.492033286   19.501676333 XXXX 2      oc23    O  -0.550
O385     6.312004704   22.985968932   13.966174187 XXXX 2      oc23    O  -0.550
O386    -0.132676379   35.468680367   10.459248931 XXXX 2      oc23    O  -0.550
O387    10.627258024   28.585460629   20.318910129 XXXX 2      oc23    O  -0.550
O388     4.087676709   20.728257230   17.857199764 XXXX 2      oc23    O  -0.550
O389    10.863422170   33.054854297   18.416022386 XXXX 2      oc23    O  -0.550
O390     8.417524335   28.535494449   11.219516827 XXXX 2      oc23    O  -0.550
O391    15.313932034   35.828558858    2.892454118 XXXX 2      oc23    O  -0.550
O392    12.479198141   21.900823919   10.060960783 XXXX 2      oc23    O  -0.550
O393     3.761457576   39.472667210    1.940655648 XXXX 2      oc23    O  -0.550
O394     6.378523715   23.760001438    6.265495535 XXXX 2      oc23    O  -0.550
O395     6.580904213   21.327653826    5.019735456 XXXX 2      oc23    O  -0.550
O396     2.928949284   34.173392414    5.161572223 XXXX 2      oc23    O  -0.550
Si200    5.223787587   22.683722070    2.530310087 XXXX 2      sc4     Si  1.100
Si201    9.021077024   24.020110558    3.240363535 XXXX 2      sc4     Si  1.100
Si202   11.377556954   34.752321472    9.611820753 XXXX 2      sc4     Si  1.100
Si203   10.827340702   25.519204615    8.776314733 XXXX 2      sc4     Si  1.100
Si204   10.995977200   24.422707132    5.935694059 XXXX 2      sc4     Si  1.100
Si205   13.819301895   20.704268129    6.946204381 XXXX 2      sc4     Si  1.100
Si206   10.978601482   30.041836602   20.862316140 XXXX 2      sc4     Si  1.100
Si207   11.415291650   35.754312172    3.115831759 XXXX 2      sc4     Si  1.100
O397    10.259426737   25.799946733    5.277769516 XXXX 2      oc23    O  -0.550
O398    11.823720746   36.047401984    4.607542315 XXXX 2      oc23    O  -0.550
O399    13.514240419   36.324625008   12.500857332 XXXX 2      oc23    O  -0.550
O400     3.960705530   35.744535268    9.977530474 XXXX 2      oc23    O  -0.550
O401     8.664573235   20.907283981    3.422521861 XXXX 2      oc23    O  -0.550
O402    12.131161140   25.191726474   18.921183774 XXXX 2      oc23    O  -0.550
O403     8.765158842   36.545125195   20.402246511 XXXX 2      oc23    O  -0.550
O404    13.293959760   24.784282196    2.302919286 XXXX 2      oc23    O  -0.550
O405    16.356431861   28.012621454    3.813515051 XXXX 2      oc23    O  -0.550
O406     4.603665668   21.709242032    3.666886976 XXXX 2      oc23    O  -0.550
O407    11.226779167   28.933863172    4.778392875 XXXX 2      oc23    O  -0.550
O408     3.593216063   35.518565053    1.093369591 XXXX 2      oc24    O  -0.675
O409    12.366921591   37.668925900   14.271991160 XXXX 2      oc23    O  -0.550
O410    11.534099414   36.231775286   20.577369145 XXXX 2      oc23    O  -0.550
O411     7.038557701   33.032023410   16.047656678 XXXX 2      oc23    O  -0.550
Si208    4.818341751   39.615567077   10.851989435 XXXX 2      sc4     Si  1.100
Si209    0.633139589   33.774776737    7.697904913 XXXX 2      sc4     Si  1.100
Si210   10.860519409   38.050640053   14.013437162 XXXX 2      sc4     Si  1.100
Si211    7.370630116   22.577697357    5.677828900 XXXX 2      sc4     Si  1.100
Si212   14.549563842   36.334401913   16.076718313 XXXX 2      sc4     Si  1.100
Si213   10.188229787   39.255979992   11.315411923 XXXX 2      sc4     Si  1.100
Si214    7.610543462   28.166831808   15.399833236 XXXX 2      sc4     Si  1.100
Si215    4.639626388   21.630315570    9.750162891 XXXX 2      sc4     Si  1.100
O412    12.521367478   25.278856745   16.396203528 XXXX 2      oc23    O  -0.550
O413    10.676442768   28.834590179    7.377860097 XXXX 2      oc23    O  -0.550
O414     7.274197404   26.692929518   15.957946660 XXXX 2      oc23    O  -0.550
O415     6.841579632   33.056758311   13.560496802 XXXX 2      oc23    O  -0.550
O416    15.111511287   21.962806875   10.432170657 XXXX 2      oc23    O  -0.550
O417    10.061279033   41.417527850    5.621665773 XXXX 2      oc23    O  -0.550
O418    13.554676029   33.078470497   15.470326663 XXXX 2      oc23    O  -0.550
O419     9.350690622   31.360160414    8.517737870 XXXX 2      oc23    O  -0.550
O420    14.177619910   22.534235943   12.649421630 XXXX 2      oc23    O  -0.550
O421    15.242050243   40.803961040    6.666635250 XXXX 2      oc23    O  -0.550
O422     4.006986912   28.628425666   18.870142632 XXXX 2      oc23    O  -0.550
O423    18.618978146   23.808394522    2.769858566 XXXX 2      oc23    O  -0.550
O424    17.172927207   32.277423705    8.066546583 XXXX 2      oc23    O  -0.550
O425     7.306408924   37.455053956   18.463874952 XXXX 2      oc23    O  -0.550
O426    17.627234590   33.487984249   21.288887424 XXXX 2      oc23    O  -0.550
O427     0.699142943   24.968075156    3.708484811 XXXX 2      oc23    O  -0.550
O428    19.140852826   34.404086857   23.142104577 XXXX 2      oc24    O  -0.675
H1      14.764944333   22.259682374    0.620361685 XXXX 2      hoy     H   0.400
Si216   20.269062209   23.831180957   17.875378588 XXXX 2      sc4     Si  1.100
O429     5.165048721   39.130606443   22.239198548 XXXX 2      oc23    O  -0.550
O430     5.822300694   37.178537219   20.578525813 XXXX 2      oc23    O  -0.550
O431    14.005757454   38.740315581   24.179694887 XXXX 2      oc24    O  -0.675
H2      11.636875121   28.240706244    1.506842647 XXXX 2      hoy     H   0.400
O432    13.598740091   31.826974877   23.499150545 XXXX 2      oc24    O  -0.675
O433     7.664000648   32.588620176    1.146959061 XXXX 2      oc23    O  -0.550
O434    10.454146035   39.151819782    0.946835795 XXXX 2      oc24    O  -0.675
H3       4.451907661   29.838063313   21.937061821 XXXX 2      hoy     H   0.400
H4      14.428996777   33.192504778    0.925989832 XXXX 2      hoy     H   0.400
O435    17.475328619   25.443631787    0.997993730 XXXX 2      oc24    O  -0.675
H5       1.363411598   34.284386724   21.916070250 XXXX 2      hoy     H   0.400
H6       2.263228213   30.439929025   21.881171074 XXXX 2      hoy     H   0.400
O436    20.318365899   31.081697681    2.093681982 XXXX 2      oc24    O  -0.675
H7      15.817544566   26.939277336    1.416746176 XXXX 2      hoy     H   0.400
O437    17.131281713   31.330911196    0.764559268 XXXX 2      oc24    O  -0.675
O438    15.528648667   29.591844638    2.071042528 XXXX 2      oc23    O  -0.550
O439     1.007788866   39.704603831    0.955712026 XXXX 2      oc24    O  -0.675
O440    11.287171261   25.877964405    1.165090044 XXXX 2      oc24    O  -0.675
H8      18.161173751   27.012101297    1.547269607 XXXX 2      hoy     H   0.400
H9       2.909400512   28.806080154    2.432355964 XXXX 2      hoy     H   0.400
O441    13.281987071   26.848757420   23.304409584 XXXX 2      oc24    O  -0.675
O442     7.521448152   35.479371001    1.505492375 XXXX 2      oc23    O  -0.550
O443     8.034251703   37.488945907   -0.047622900 XXXX 2      oc24    O  -0.675
O444    16.983810383   29.046931009   22.274869515 XXXX 2      oc24    O  -0.675
H10     10.145984654   32.138196141    1.282540816 XXXX 2      hoy     H   0.400
H11      9.699322858   39.672125033   22.486626898 XXXX 2      hoy     H   0.400
O445     9.505982948   32.490757290   23.309886168 XXXX 2      oc24    O  -0.675
O446    11.655406243   32.623297441   21.608939715 XXXX 2      oc23    O  -0.550
O447     2.547724865   27.382565533   20.350922534 XXXX 2      oc24    O  -0.675
O448     8.509603505   20.868047947    0.564105324 XXXX 2      oc24    O  -0.675
O449     6.513497913   21.854171860    1.886617300 XXXX 2      oc23    O  -0.550
H12     -1.904455291   20.369956928    1.740949333 XXXX 2      hoy     H   0.400
O450    11.755951601   29.687593599   22.251662983 XXXX 2      oc24    O  -0.675
H13      3.980584248   36.063689058    0.436622257 XXXX 2      hoy     H   0.400
H14     18.436779274   34.012430480   23.625252460 XXXX 2      hoy     H   0.400
H15     14.071633857   37.822071977   24.364168774 XXXX 2      hoy     H   0.400
H16     10.017747615   39.979537771    0.860854140 XXXX 2      hoy     H   0.400
H17     20.908433413   30.375350879    1.878930187 XXXX 2      hoy     H   0.400
H18     17.975955242   31.739293997    0.821290498 XXXX 2      hoy     H   0.400
H19      0.543306046   38.965954558    0.594001774 XXXX 2      hoy     H   0.400
H20     11.339426188   25.162819175    0.560503188 XXXX 2      hoy     H   0.400
H21     13.854137789   26.251662539   23.751816584 XXXX 2      hoy     H   0.400
H22      8.473059544   38.316721744   -0.068593735 XXXX 2      hoy     H   0.400
H23      8.906329201   31.796244140   23.491130578 XXXX 2      hoy     H   0.400
H24      1.660359850   27.296970828   20.656108837 XXXX 2      hoy     H   0.400
H25     12.603286282   29.329287099   22.035033639 XXXX 2      hoy     H   0.400
Si217    4.754322107   37.625960862   21.848464273 XXXX 2      sc4     Si  1.100
O451     5.160654930   36.657323754   23.128529910 XXXX 2      oc24    O  -0.675
H26      5.904380081   36.133568562   22.906091049 XXXX 2      hoy     H   0.400
Si218    6.974134661   34.053404929    0.752424104 XXXX 2      sc4     Si  1.100
O452     7.047708728   34.486038504   -0.874298596 XXXX 2      oc24    O  -0.675
O453     5.444753086   33.886807368    1.232466659 XXXX 2      oc23    O  -0.550
Si219    9.557464911   22.402110674   20.830564055 XXXX 2      sc4     Si  1.100
O454     9.394754684   23.255319066   22.209735878 XXXX 2      oc24    O  -0.675
O455     2.889074162   40.259709247   22.388069602 XXXX 2      oc24    O  -0.675
H27      2.947025259   39.838434344   23.223694535 XXXX 2      hoy     H   0.400
O456    21.422871400   24.305744832   18.777175792 XXXX 2      oc23    O  -0.550
O457    19.366413963   23.162511326   19.134999908 XXXX 2      oc23    O  -0.550
O458    19.981496599   25.426562334   17.390354059 XXXX 2      oc23    O  -0.550
Si220   21.287090413   25.416121124   19.978367083 XXXX 2      sc4     Si  1.100
O459     2.327839942   25.107246019   21.062039779 XXXX 2      oc23    O  -0.550
O460    20.770134567   26.756653498   19.196002185 XXXX 2      oc23    O  -0.550
Si221   20.406575722   27.033293712   17.724688808 XXXX 2      sc4     Si  1.100
O461    19.171653815   28.069260328   17.618430136 XXXX 2      oc23    O  -0.550
Si222   19.277238155   22.229877625   20.489123255 XXXX 2      sc4     Si  1.100
Si223    3.864349112   25.014853162   20.940080253 XXXX 2      sc4     Si  1.100
O462     4.544927103   26.188039705   21.857977937 XXXX 2      oc24    O  -0.675
H28      4.072626823   26.992109938   21.693546968 XXXX 2      hoy     H   0.400
O463    19.761619635   23.119254883   21.807954156 XXXX 2      oc24    O  -0.675
H29     12.152538599   22.157555748   21.722548327 XXXX 2      hoy     H   0.400
O464    17.128459450   22.188693125   23.516738372 XXXX 2      oc24    O  -0.675
H30     16.971820568   21.398086293   24.002141598 XXXX 2      hoy     H   0.400
H31     17.046148103   24.953903089   21.998037863 XXXX 2      hoy     H   0.400
H32      7.323926481   25.025385501    2.434470415 XXXX 2      hoy     H   0.400
O465     4.165121625   22.919014794    1.273072461 XXXX 2      oc24    O  -0.675
H33      3.404151807   22.389466199    1.415699084 XXXX 2      hoy     H   0.400
H34     17.438006344   29.542077504   22.958385031 XXXX 2      hoy     H   0.400
H35     17.319412774   24.894798611    0.239058409 XXXX 2      hoy     H   0.400
H36     13.004821758   31.204027690   23.880741578 XXXX 2      hoy     H   0.400
H37     19.135918867   23.798870428   22.023504994 XXXX 2      hoy     H   0.400
H38      3.599828556   32.417966030   22.085769017 XXXX 2      hoy     H   0.400
H39      8.236738955   21.441331174   -0.151192241 XXXX 2      hoy     H   0.400
H40      7.302595011   35.382647464   -0.929473035 XXXX 2      hoy     H   0.400
H41      9.540591789   22.665966051   22.929983780 XXXX 2      hoy     H   0.400
Si1     35.541590245   20.117963794   18.465125898 XXXX 3      sc4     Si  1.100
Si2     34.497115194    7.083792599   15.966587196 XXXX 3      sc4     Si  1.100
Si3     38.869858447   13.879633261   21.694329113 XXXX 3      sc4     Si  1.100
Si4     37.192480497   14.503142434   16.321248063 XXXX 3      sc4     Si  1.100
Si5     28.612730130    2.309800141   17.393021994 XXXX 3      sc4     Si  1.100
Si6     38.079043408    2.103481282   13.715623994 XXXX 3      sc4     Si  1.100
Si7     33.835509080    2.592449052   21.401544356 XXXX 3      sc4     Si  1.100
O1      28.590031882   19.704680291   16.089962303 XXXX 3      oc23    O  -0.550
O2      34.533036866    5.942879842   10.093327084 XXXX 3      oc23    O  -0.550
O3      32.434893085   12.358498570    6.561155297 XXXX 3      oc23    O  -0.550
O4      28.265417618    3.183741547   11.404366659 XXXX 3      oc23    O  -0.550
O5      36.652504409   18.019475611   12.178279930 XXXX 3      oc23    O  -0.550
O6      22.086049043   18.892447722   20.266808004 XXXX 3      oc23    O  -0.550
O7      23.761451769    5.153186137   16.558837805 XXXX 3      oc23    O  -0.550
O8      28.667517348    8.035899848    8.787646597 XXXX 3      oc23    O  -0.550
O9      38.222766140   17.720129222   14.218448125 XXXX 3      oc23    O  -0.550
O10     36.456414229   14.366541127    8.609879247 XXXX 3      oc23    O  -0.550
O11     29.304651839    1.918690473    2.281601135 XXXX 3      oc23    O  -0.550
O12     32.231666149   10.178637846   19.741368340 XXXX 3      oc23    O  -0.550
O13     39.324527474    2.326107741   12.603339244 XXXX 3      oc23    O  -0.550
O14     20.526795218    0.355476499   11.791087071 XXXX 3      oc23    O  -0.550
O15     22.151238623   13.327469066    7.110109128 XXXX 3      oc23    O  -0.550
Si8     27.662390573    7.783661766   10.054846062 XXXX 3      sc4     Si  1.100
Si9     33.604626613    4.608148414   10.272510720 XXXX 3      sc4     Si  1.100
Si10    34.862971257    7.010375060    2.705102043 XXXX 3      sc4     Si  1.100
Si11    34.717998993    7.565729283    9.817988384 XXXX 3      sc4     Si  1.100
Si12    37.941167050    1.110054094   16.910500764 XXXX 3      sc4     Si  1.100
Si13    37.549709977    6.164333888    3.600619186 XXXX 3      sc4     Si  1.100
Si14    22.577204434    5.014886404   12.427059239 XXXX 3      sc4     Si  1.100
Si15    31.371953780    8.844486143    5.964876753 XXXX 3      sc4     Si  1.100
O16     33.345766622    2.614909508   19.795878079 XXXX 3      oc23    O  -0.550
O17     38.476829846    4.527356215    6.736413060 XXXX 3      oc23    O  -0.550
O18     30.292847441   17.234961147   10.614706801 XXXX 3      oc23    O  -0.550
O19     38.440343482    4.520188378   19.232831226 XXXX 3      oc23    O  -0.550
O20     35.497890230    8.764108209    6.276243722 XXXX 3      oc23    O  -0.550
O21     37.721208386    3.829587699   21.757999325 XXXX 3      oc24    O  -0.675
O22     40.396879436    2.537622202   16.345021672 XXXX 3      oc23    O  -0.550
O23     37.434974009    2.503523735   17.718338391 XXXX 3      oc23    O  -0.550
O24     22.982084375    3.707914137   11.645662452 XXXX 3      oc23    O  -0.550
O25     30.773924868   10.420310624    5.935604046 XXXX 3      oc23    O  -0.550
O26     30.172709646    2.193985251    6.031418113 XXXX 3      oc23    O  -0.550
O27     32.966321887    8.785404277    5.991270454 XXXX 3      oc23    O  -0.550
O28     28.228974506    2.404932181    4.528691890 XXXX 3      oc23    O  -0.550
O29     20.160494609   17.000456206   15.316497557 XXXX 3      oc23    O  -0.550
Si16    37.506533805   13.129257702   11.822745229 XXXX 3      sc4     Si  1.100
Si17    21.238752708    7.984234008    3.986915346 XXXX 3      sc4     Si  1.100
Si18    33.879009650   17.533188834   18.145263571 XXXX 3      sc4     Si  1.100
Si19    34.640030535   11.838982913   11.447096888 XXXX 3      sc4     Si  1.100
Si20    20.869993883   11.834508109   16.064843470 XXXX 3      sc4     Si  1.100
Si21    23.218693067   12.862932753    6.006521023 XXXX 3      sc4     Si  1.100
Si22    24.440431199   19.340782626   21.868555399 XXXX 3      sc4     Si  1.100
Si23    31.425775013    1.351577696   16.726406918 XXXX 3      sc4     Si  1.100
O30     23.507628357   14.497798352   16.053889599 XXXX 3      oc23    O  -0.550
O31     34.338316366   10.900921166    5.154772929 XXXX 3      oc23    O  -0.550
O32     39.934893122    6.466165867    7.176645506 XXXX 3      oc23    O  -0.550
O33     22.728345066   16.262966701   13.429473192 XXXX 3      oc23    O  -0.550
O34     37.309071541    6.867890694    6.896755328 XXXX 3      oc23    O  -0.550
O35     37.178089241   16.897455444    4.381332104 XXXX 3      oc23    O  -0.550
O36     25.708411665   19.178825328    3.949166036 XXXX 3      oc23    O  -0.550
O37     19.727231044   20.239318169    3.546841159 XXXX 3      oc23    O  -0.550
O38     21.003919795    4.984930898   12.619841463 XXXX 3      oc23    O  -0.550
O39     34.707236188   16.574037225   14.579932208 XXXX 3      oc23    O  -0.550
O40     34.804435441    5.537426629   16.138877259 XXXX 3      oc23    O  -0.550
O41     39.202496156    6.589053208   12.253494308 XXXX 3      oc23    O  -0.550
O42     28.220345519   14.473270892   14.408845952 XXXX 3      oc23    O  -0.550
O43     26.224764371    1.926334622   10.126165480 XXXX 3      oc23    O  -0.550
O44     30.356506343    4.295295500   17.284661760 XXXX 3      oc23    O  -0.550
Si24    33.777497105   18.189761429   22.459932176 XXXX 3      sc4     Si  1.100
Si25    36.495236259    9.195415024   16.594674814 XXXX 3      sc4     Si  1.100
Si26    20.455033574   19.262352541    4.555935503 XXXX 3      sc4     Si  1.100
Si27    34.927555295    9.221393338   20.060759276 XXXX 3      sc4     Si  1.100
Si28    34.033091490    4.146389097   16.130544183 XXXX 3      sc4     Si  1.100
Si29    21.939908946   14.635683820   16.335719781 XXXX 3      sc4     Si  1.100
Si30    35.713936894    1.043634457    2.848544355 XXXX 3      sc4     Si  1.100
Si31    34.586896546   14.052031770    2.248289940 XXXX 3      sc4     Si  1.100
O45     34.377097546   12.826224292    3.280520459 XXXX 3      oc23    O  -0.550
O46     29.150569998    7.873610397   16.214965470 XXXX 3      oc23    O  -0.550
O47     31.369454714    8.513693263    2.052769424 XXXX 3      oc24    O  -0.675
O48     20.065835273    4.084622226   21.041405497 XXXX 3      oc23    O  -0.550
O49     33.178862650    5.969396515   20.814014696 XXXX 3      oc23    O  -0.550
O50     19.969483060   14.289353220   20.594698058 XXXX 3      oc23    O  -0.550
O51     25.982311709   16.269636925    8.111668244 XXXX 3      oc23    O  -0.550
O52     36.267701099   10.354972182   20.180805093 XXXX 3      oc23    O  -0.550
O53     25.786341677   14.294615807   14.855435895 XXXX 3      oc23    O  -0.550
O54     28.655221462   18.729537182   11.516692561 XXXX 3      oc23    O  -0.550
O55     28.910493852   12.507861220   20.834765771 XXXX 3      oc23    O  -0.550
O56     30.261443312   17.194150782   19.099138978 XXXX 3      oc23    O  -0.550
O57     21.606422997   16.052574337   17.096200155 XXXX 3      oc23    O  -0.550
O58     33.993745618   11.319426509   10.018915127 XXXX 3      oc23    O  -0.550
Si32    30.184885384   16.733633644    9.100214670 XXXX 3      sc4     Si  1.100
Si33    33.321979838   11.213774697   21.970824833 XXXX 3      sc4     Si  1.100
Si34    36.969460478    8.698148678   11.301223743 XXXX 3      sc4     Si  1.100
Si35    27.618082612   11.048046413    7.992512267 XXXX 3      sc4     Si  1.100
Si36    28.248363895   10.826220085    2.990616114 XXXX 3      sc4     Si  1.100
Si37    33.379628967   13.331901888    7.453714547 XXXX 3      sc4     Si  1.100
Si38    34.206769373    9.689864244    6.205357307 XXXX 3      sc4     Si  1.100
Si39    27.540114154   15.666345867    8.152941909 XXXX 3      sc4     Si  1.100
O59     32.236827681    2.801788466    4.815669387 XXXX 3      oc23    O  -0.550
O60     33.989593323    9.211905370   18.628539730 XXXX 3      oc23    O  -0.550
O61     22.888876420   11.374778753    5.563566423 XXXX 3      oc23    O  -0.550
O62     28.048364118   14.989595905    6.814212747 XXXX 3      oc23    O  -0.550
O63     21.988770493   13.763292050   13.299818728 XXXX 3      oc23    O  -0.550
O64     39.282922830   10.367567448    9.557381019 XXXX 3      oc23    O  -0.550
O65     21.893303767   14.156149998   19.100957001 XXXX 3      oc23    O  -0.550
O66     38.292913002   16.933542815   19.690327198 XXXX 3      oc23    O  -0.550
O67     37.291171981    5.325957546   11.615208453 XXXX 3      oc23    O  -0.550
O68     34.779519271   12.560852585    7.788615758 XXXX 3      oc23    O  -0.550
O69     37.656987194   13.047636973   16.032925343 XXXX 3      oc23    O  -0.550
O70     37.192925043   14.529451667   11.156035172 XXXX 3      oc23    O  -0.550
O71     36.545549187   14.603159993    5.184614119 XXXX 3      oc23    O  -0.550
O72     33.716983662   14.756333142    6.675745550 XXXX 3      oc23    O  -0.550
O73     33.446351628    9.988961827   14.778473851 XXXX 3      oc23    O  -0.550
Si40    19.690383036   11.166542297   18.735507601 XXXX 3      sc4     Si  1.100
Si41    22.592523228   12.801241202   12.321910096 XXXX 3      sc4     Si  1.100
Si42    20.685755043   15.131707989   19.409086606 XXXX 3      sc4     Si  1.100
Si43    35.220563582   17.729534461    9.286835033 XXXX 3      sc4     Si  1.100
Si44    33.171041054    9.930708492   13.235936038 XXXX 3      sc4     Si  1.100
Si45    38.293196550   17.487778954    5.418519972 XXXX 3      sc4     Si  1.100
Si46    19.972586467    5.882016204   13.356430733 XXXX 3      sc4     Si  1.100
Si47    38.312626788   12.381991293   14.709208856 XXXX 3      sc4     Si  1.100
O74     28.869696599   10.412521699   16.792249049 XXXX 3      oc23    O  -0.550
O75     36.246211534   12.084882307   11.515866571 XXXX 3      oc23    O  -0.550
O76     26.244519007    5.331468322    7.503793910 XXXX 3      oc23    O  -0.550
O77     33.179790188   14.977995246   15.719177033 XXXX 3      oc23    O  -0.550
O78     20.965338059    2.587841973   10.580498907 XXXX 3      oc23    O  -0.550
O79     35.691440494   14.669036177   15.936274614 XXXX 3      oc23    O  -0.550
O80     23.016513816   12.925744239    2.265949531 XXXX 3      oc23    O  -0.550
O81     33.173782817   14.754137722    2.181927872 XXXX 3      oc23    O  -0.550
O82     24.323237015    7.049942629   14.769243725 XXXX 3      oc23    O  -0.550
O83     25.201495337    4.796829827    5.251872535 XXXX 3      oc23    O  -0.550
O84     32.239648742   13.634106768   13.765248148 XXXX 3      oc23    O  -0.550
O85     30.423589446   12.602284038    9.542177589 XXXX 3      oc23    O  -0.550
O86     37.929274859   13.317276044   13.453529636 XXXX 3      oc23    O  -0.550
O87     32.332412152   17.720004511   17.872001456 XXXX 3      oc23    O  -0.550
O88     37.574825591    8.946533045   15.437487564 XXXX 3      oc23    O  -0.550
O89     21.358205663   16.504762955   19.809995902 XXXX 3      oc23    O  -0.550
Si48    27.261458675   15.695721031   19.851263058 XXXX 3      sc4     Si  1.100
Si49    23.490697185    1.380965363   14.073023858 XXXX 3      sc4     Si  1.100
Si50    30.710508663    4.165571858   18.864122893 XXXX 3      sc4     Si  1.100
Si51    35.552838445    1.028942707   12.236968872 XXXX 3      sc4     Si  1.100
Si52    38.817125750   16.828803498   15.343056596 XXXX 3      sc4     Si  1.100
Si53    31.146715839   18.408024213   18.643058588 XXXX 3      sc4     Si  1.100
Si54    33.251792126   15.927408229   20.660516971 XXXX 3      sc4     Si  1.100
Si55    30.222820726   17.629103254    2.626983330 XXXX 3      sc4     Si  1.100
O90     22.593974609   17.688433926   15.621936009 XXXX 3      oc23    O  -0.550
O91     25.599320223   15.786456828   17.016145924 XXXX 3      oc23    O  -0.550
O92     37.038237659    1.321033976   12.741020731 XXXX 3      oc23    O  -0.550
O93     28.829461635    6.505070365    6.665440721 XXXX 3      oc23    O  -0.550
O94     35.484786954    2.376940729   21.448216332 XXXX 3      oc23    O  -0.550
O95     26.394246706    6.914418658    9.542909653 XXXX 3      oc23    O  -0.550
O96     39.361657829    5.851066708    9.770961457 XXXX 3      oc23    O  -0.550
O97     19.650068775   15.414108401   18.256880627 XXXX 3      oc23    O  -0.550
O98     37.722902464   18.148701641   21.775492874 XXXX 3      oc23    O  -0.550
O99     32.716372027    5.757927433   13.334074113 XXXX 3      oc23    O  -0.550
O100    31.711605694   10.477486623    8.757782541 XXXX 3      oc23    O  -0.550
O101    21.485600361   12.349383502   11.231816627 XXXX 3      oc23    O  -0.550
O102    33.242720997   16.762718638   21.992165499 XXXX 3      oc23    O  -0.550
O103    28.743027590   16.949287360    2.777531693 XXXX 3      oc23    O  -0.550
O104    20.714097816   12.892184441    3.491409744 XXXX 3      oc23    O  -0.550
O105    24.883813578    8.553012027   21.750610440 XXXX 3      oc24    O  -0.675
Si56    22.070891246   13.650679843    3.334983763 XXXX 3      sc4     Si  1.100
Si57    39.486108916   15.738478627    7.743222518 XXXX 3      sc4     Si  1.100
Si58    38.043607132    9.581810188   14.161765764 XXXX 3      sc4     Si  1.100
Si59    31.144860763   12.038436455    5.636892421 XXXX 3      sc4     Si  1.100
Si60    31.004485339   12.161655331    2.664969040 XXXX 3      sc4     Si  1.100
Si61    21.059675400   20.099485469    7.593678501 XXXX 3      sc4     Si  1.100
Si62    23.070697894    6.486301870    9.786684473 XXXX 3      sc4     Si  1.100
Si63    38.569634107    6.086027280    6.428148545 XXXX 3      sc4     Si  1.100
O106    22.391836209    9.355881338    7.177379681 XXXX 3      oc23    O  -0.550
O107    35.231086092   10.381985851    2.757819087 XXXX 3      oc23    O  -0.550
O108    29.787180646   11.198775953    2.585835780 XXXX 3      oc23    O  -0.550
O109    28.239617164    1.197873288   20.553406980 XXXX 3      oc23    O  -0.550
O110    36.988085729    2.035213813    2.893398308 XXXX 3      oc23    O  -0.550
O111    28.569633255    6.865570562    4.046053165 XXXX 3      oc23    O  -0.550
O112    21.942931855   17.712920638    1.929466081 XXXX 3      oc23    O  -0.550
O113    34.107030205   10.240163938    7.748059909 XXXX 3      oc23    O  -0.550
O114    35.047935788   13.503554596    0.754572805 XXXX 3      oc24    O  -0.675
O115    27.156399380    6.049070013   18.760366113 XXXX 3      oc23    O  -0.550
O116    36.897458539    5.712724993   14.154376175 XXXX 3      oc23    O  -0.550
O117    31.623275724   11.948115540    4.043810185 XXXX 3      oc23    O  -0.550
O118    21.270642232   15.063468456   14.986081689 XXXX 3      oc23    O  -0.550
O119    35.019674715   18.256342666   21.515877190 XXXX 3      oc23    O  -0.550
Si64    37.044968317   15.345910851    9.724170929 XXXX 3      sc4     Si  1.100
Si65    20.042573533   20.146304222   12.927074017 XXXX 3      sc4     Si  1.100
Si66    31.238955407    4.167767895   15.987551452 XXXX 3      sc4     Si  1.100
Si67    33.296662377   15.869693871    5.604621102 XXXX 3      sc4     Si  1.100
Si68    20.941632976    1.413004697   15.170293734 XXXX 3      sc4     Si  1.100
Si69    36.803121198   19.329430155    7.376958297 XXXX 3      sc4     Si  1.100
Si70    31.386789582   19.730741334   21.228450816 XXXX 3      sc4     Si  1.100
O120    37.218807197    9.012824729   12.877403428 XXXX 3      oc23    O  -0.550
O121    25.529495356    1.568544590   19.796751912 XXXX 3      oc23    O  -0.550
O122    35.991583134   16.503355318    9.939899364 XXXX 3      oc23    O  -0.550
O123    21.392433256   19.318617280   12.941474675 XXXX 3      oc23    O  -0.550
O124    20.719458794    7.253580804   13.665079572 XXXX 3      oc23    O  -0.550
O125    23.747420955   18.665276077   13.649380829 XXXX 3      oc23    O  -0.550
O126    26.350063699   17.623386272    1.833924177 XXXX 3      oc23    O  -0.550
O127    28.674531553   16.714450266    8.585563186 XXXX 3      oc23    O  -0.550
O128    38.978546195   17.021917733   11.611194941 XXXX 3      oc23    O  -0.550
O129    24.872928223   12.992035306    6.102888769 XXXX 3      oc23    O  -0.550
O130    35.578881597   20.328769806   12.513299253 XXXX 3      oc23    O  -0.550
O131    36.152037594   18.150152495    8.127985953 XXXX 3      oc23    O  -0.550
O132    21.909026256   19.093723783    3.937268678 XXXX 3      oc23    O  -0.550
O133    33.298394902    8.421092965   12.690948403 XXXX 3      oc23    O  -0.550
O134    38.270901997   11.931707924   19.066961937 XXXX 3      oc23    O  -0.550
O135    20.156866157   17.310325299   21.593192426 XXXX 3      oc23    O  -0.550
Si71    22.754227221   16.348730081    2.240664656 XXXX 3      sc4     Si  1.100
Si72    25.232132926    8.336157497   14.350156308 XXXX 3      sc4     Si  1.100
Si73    37.727136459    3.434753195    2.487768062 XXXX 3      sc4     Si  1.100
Si74    38.756412863   16.893975863   21.269505495 XXXX 3      sc4     Si  1.100
Si75    24.283566744    4.234183365   17.710193872 XXXX 3      sc4     Si  1.100
Si76    38.688563219    4.721382019   20.841683265 XXXX 3      sc4     Si  1.100
Si77    19.828824087    1.665528629   11.282195710 XXXX 3      sc4     Si  1.100
Si78    24.371896715    1.291327276   16.981135609 XXXX 3      sc4     Si  1.100
O136    37.652916600    9.197238161    2.809614456 XXXX 3      oc23    O  -0.550
O137    22.229005234   13.109702659   21.346301497 XXXX 3      oc24    O  -0.675
O138    21.124098440    2.017066561    3.554584643 XXXX 3      oc23    O  -0.550
O139    28.409219646    1.037303640    6.830251930 XXXX 3      oc23    O  -0.550
O140    36.568004738   12.101496130    4.359494718 XXXX 3      oc23    O  -0.550
O141    28.250339118    3.920016965   17.765106053 XXXX 3      oc23    O  -0.550
O142    32.717177015   19.370447961   22.034210803 XXXX 3      oc23    O  -0.550
O143    32.267102425    7.204815438   18.700354461 XXXX 3      oc23    O  -0.550
O144    34.057683262   14.574446665   20.676970644 XXXX 3      oc23    O  -0.550
O145    39.873211847   12.108954137   14.957752469 XXXX 3      oc23    O  -0.550
O146    39.255469147    0.299058572   17.605799659 XXXX 3      oc23    O  -0.550
O147    21.180337038   10.511750240   21.812179794 XXXX 3      oc24    O  -0.675
O148    22.275689710    0.314291459    7.687505630 XXXX 3      oc23    O  -0.550
O149    30.516513854    6.527278311   12.682189669 XXXX 3      oc23    O  -0.550
O150    26.744582127    4.461562143    9.741546277 XXXX 3      oc23    O  -0.550
Si79    22.978093078   19.618294586   12.668332167 XXXX 3      sc4     Si  1.100
Si80    26.003114031    9.640394442    5.699477729 XXXX 3      sc4     Si  1.100
Si81    20.668864721    8.703244571   13.051771132 XXXX 3      sc4     Si  1.100
Si82    22.920201252    9.774219988    5.793931914 XXXX 3      sc4     Si  1.100
Si83    26.387355051    4.467859776    6.227851123 XXXX 3      sc4     Si  1.100
Si84    33.161285084    1.474042437    4.564789220 XXXX 3      sc4     Si  1.100
Si85    22.538903844    2.868419403   10.349897368 XXXX 3      sc4     Si  1.100
O151    22.055329754    6.907831163   18.287736365 XXXX 3      oc23    O  -0.550
O152    37.360110160    9.494885507    7.957100390 XXXX 3      oc23    O  -0.550
O153    30.863463521    3.950224982   12.300757283 XXXX 3      oc23    O  -0.550
O154    20.181135934    8.019119949    8.995466561 XXXX 3      oc23    O  -0.550
O155    22.824857075    2.436900979    6.630640334 XXXX 3      oc23    O  -0.550
O156    34.319003872   12.239961939   21.270000808 XXXX 3      oc23    O  -0.550
O157    30.151102336    1.735594231   17.555019541 XXXX 3      oc23    O  -0.550
O158    38.641393347    1.957897490    7.308542685 XXXX 3      oc23    O  -0.550
O159    27.876178466   18.991677498   13.871696080 XXXX 3      oc23    O  -0.550
O160    38.506905145    6.424195437    4.843810754 XXXX 3      oc23    O  -0.550
O161    31.708097390   19.284600616   19.785254182 XXXX 3      oc23    O  -0.550
O162    35.532881961    7.618389729    8.459143031 XXXX 3      oc23    O  -0.550
O163    20.267490681   12.179595296    6.002384162 XXXX 3      oc23    O  -0.550
O164    24.214347420    2.704895491   13.682832738 XXXX 3      oc23    O  -0.550
O165    33.416800172    4.185086463   11.881788418 XXXX 3      oc23    O  -0.550
O166    21.663389688    5.996865814    9.060789457 XXXX 3      oc23    O  -0.550
Si86    26.087815550    9.527658140   11.765566852 XXXX 3      sc4     Si  1.100
Si87    33.772698418    7.012653827   13.149767085 XXXX 3      sc4     Si  1.100
Si88    27.198326019    5.056649702   17.495999922 XXXX 3      sc4     Si  1.100
Si89    37.930887238    7.930496843   18.603161984 XXXX 3      sc4     Si  1.100
Si90    30.299741499   10.306330910   12.416931358 XXXX 3      sc4     Si  1.100
Si91    21.640530443   15.202804778   13.560591080 XXXX 3      sc4     Si  1.100
Si92    29.979159382    0.922035752    6.921210695 XXXX 3      sc4     Si  1.100
Si93    27.817762797   11.756823825   12.508317982 XXXX 3      sc4     Si  1.100
O167    26.762806086    8.465010626    5.011496659 XXXX 3      oc23    O  -0.550
O168    24.110213260   10.412396987    8.790621113 XXXX 3      oc23    O  -0.550
O169    28.354391579    6.916200430   13.949058456 XXXX 3      oc23    O  -0.550
O170    26.064754457   14.293870007   11.165336710 XXXX 3      oc23    O  -0.550
O171    26.645287504    8.248984010   15.207641306 XXXX 3      oc23    O  -0.550
O172    33.730529081   17.375374188    8.684645451 XXXX 3      oc23    O  -0.550
O173    32.743825710   17.110913740    6.320860221 XXXX 3      oc23    O  -0.550
O174    24.746220768   12.643468538    9.763241894 XXXX 3      oc23    O  -0.550
O175    37.422315278   15.093216521   17.746360855 XXXX 3      oc23    O  -0.550
O176    37.354102789    9.218410135   17.807883070 XXXX 3      oc23    O  -0.550
O177    36.836824949    6.851980690   18.209240539 XXXX 3      oc23    O  -0.550
O178    23.659213535   13.727452868   11.755321123 XXXX 3      oc23    O  -0.550
O179    35.548525153    8.245628524   10.988537471 XXXX 3      oc23    O  -0.550
O180    33.323995912    3.948704672   22.189385838 XXXX 3      oc23    O  -0.550
O181    22.116042642    1.824975486   14.288586954 XXXX 3      oc23    O  -0.550
O182    30.377106818   18.116758156   15.321620245 XXXX 3      oc23    O  -0.550
Si94    36.479715617    8.230795856    7.401340493 XXXX 3      sc4     Si  1.100
Si95    27.111891974   13.419779194   14.776679749 XXXX 3      sc4     Si  1.100
Si96    24.391127509    1.429962866   20.951838304 XXXX 3      sc4     Si  1.100
Si97    38.504687224   16.179895117   18.226946565 XXXX 3      sc4     Si  1.100
Si98    37.418888674    4.098505973   18.075950732 XXXX 3      sc4     Si  1.100
Si99    21.728860414   17.399859666   20.993953965 XXXX 3      sc4     Si  1.100
Si100   35.728087856    6.286143892   19.128318813 XXXX 3      sc4     Si  1.100
Si101   33.889169314   10.944756715   15.979383011 XXXX 3      sc4     Si  1.100
O183    32.907019530   10.841797936   17.293986868 XXXX 3      oc23    O  -0.550
O184    19.661638970    8.557610925    3.884339156 XXXX 3      oc23    O  -0.550
O185    36.128774653   -0.125704467   21.886307861 XXXX 3      oc23    O  -0.550
O186    23.759959539    2.732638291   17.484219357 XXXX 3      oc23    O  -0.550
O187    35.146466273    6.508840733   12.471489644 XXXX 3      oc23    O  -0.550
O188    30.095750426   16.205168378   13.522724274 XXXX 3      oc23    O  -0.550
O189    31.738859932   10.637496689   12.877167029 XXXX 3      oc23    O  -0.550
O190    34.342386960    6.020026384   18.550090341 XXXX 3      oc23    O  -0.550
O191    31.058707864    5.985596073    2.832231396 XXXX 3      oc23    O  -0.550
O192    38.081422327   15.410254686   15.368222568 XXXX 3      oc23    O  -0.550
O193    24.303403081   19.210479877   20.246363686 XXXX 3      oc23    O  -0.550
O194    35.542236638   10.558238074   16.298183653 XXXX 3      oc23    O  -0.550
O195    32.716047629    1.217246898   17.681132237 XXXX 3      oc23    O  -0.550
O196    22.265409898    4.814894195    6.453855166 XXXX 3      oc23    O  -0.550
O197    35.615930252    7.931532197   16.676995242 XXXX 3      oc23    O  -0.550
Si102   39.125976675    9.684105280    3.199639533 XXXX 3      sc4     Si  1.100
Si103   37.280125628   13.194886933    5.262661068 XXXX 3      sc4     Si  1.100
Si104   25.951832715    5.510081425    9.037181891 XXXX 3      sc4     Si  1.100
Si105   20.255757085   12.926820958   10.325203491 XXXX 3      sc4     Si  1.100
Si106   39.810684733   12.083348723    4.828157743 XXXX 3      sc4     Si  1.100
Si107   29.913688657    3.202265867   11.128697281 XXXX 3      sc4     Si  1.100
Si108   30.346586973   11.003093397    9.440474880 XXXX 3      sc4     Si  1.100
Si109   20.282648478    9.286772528    9.991954701 XXXX 3      sc4     Si  1.100
O198    30.786100606   15.191037425    8.936659420 XXXX 3      oc23    O  -0.550
O199    20.396699605   12.460421378    8.761205757 XXXX 3      oc23    O  -0.550
O200    29.653415732    8.946450316   13.000872110 XXXX 3      oc23    O  -0.550
O201    38.509243214   16.349517864    6.549632282 XXXX 3      oc23    O  -0.550
O202    26.868752070    2.513036399    2.279428513 XXXX 3      oc23    O  -0.550
O203    27.510887095   11.728400667   18.627831940 XXXX 3      oc23    O  -0.550
O204    26.186504630   12.292332215   20.693095046 XXXX 3      oc23    O  -0.550
O205    27.243640815   14.167750657   19.337059397 XXXX 3      oc23    O  -0.550
O206    22.101610535    9.363836340   13.301353213 XXXX 3      oc23    O  -0.550
O207    34.855796054    5.617017397    1.829439626 XXXX 3      oc24    O  -0.675
O208    35.471080538    7.534945246   20.244214985 XXXX 3      oc23    O  -0.550
O209    34.565046538    0.990381938    8.244098993 XXXX 3      oc23    O  -0.550
O210    32.728182517   13.656438808    8.916639882 XXXX 3      oc23    O  -0.550
O211    19.618018253   14.328216353    7.160030276 XXXX 3      oc23    O  -0.550
O212    39.655432657    9.514234344   14.004301314 XXXX 3      oc23    O  -0.550
O213    37.131887757   12.695299220    6.739788961 XXXX 3      oc23    O  -0.550
Si110   22.932537988   10.399885068   14.172035062 XXXX 3      sc4     Si  1.100
Si111   32.779504684   14.195426779   12.382582399 XXXX 3      sc4     Si  1.100
Si112   37.935885370    4.840416262   14.999703495 XXXX 3      sc4     Si  1.100
Si113   24.619792054   16.560944965    9.002643320 XXXX 3      sc4     Si  1.100
Si114   36.227466136    5.428460078   12.772607477 XXXX 3      sc4     Si  1.100
Si115   24.628582039   13.989385742   10.587628527 XXXX 3      sc4     Si  1.100
Si116   20.773883166    9.306618359   20.752162507 XXXX 3      sc4     Si  1.100
Si117   27.481578337   18.301420394   12.504375179 XXXX 3      sc4     Si  1.100
O214    27.111851124    9.097676850   10.709964463 XXXX 3      oc23    O  -0.550
O215    30.814722121   18.540896517   12.800252827 XXXX 3      oc23    O  -0.550
O216    20.720345482   12.073032225   19.592992599 XXXX 3      oc23    O  -0.550
O217    25.005967447   10.456605437   11.049752578 XXXX 3      oc23    O  -0.550
O218    37.825948089   18.748886019    6.249139769 XXXX 3      oc23    O  -0.550
O219    33.906021190   16.966150606   19.614310750 XXXX 3      oc23    O  -0.550
O220    26.609851228   11.063831706    9.178521939 XXXX 3      oc23    O  -0.550
O221    23.517264179    7.989661437    9.330863700 XXXX 3      oc23    O  -0.550
O222    24.284011290    9.613173949   14.707178354 XXXX 3      oc23    O  -0.550
O223    34.638499857   16.314218276    4.855377434 XXXX 3      oc23    O  -0.550
O224    38.814102842   12.519544608   11.132521884 XXXX 3      oc23    O  -0.550
O225    23.940166232    0.843886732   15.494240986 XXXX 3      oc23    O  -0.550
O226    21.311319339   13.251896237   16.715122369 XXXX 3      oc23    O  -0.550
O227    24.206768522    4.717073291   19.313215432 XXXX 3      oc23    O  -0.550
O228    28.860101627    4.383545706    2.757063454 XXXX 3      oc23    O  -0.550
O229    33.784107616    1.076469291    5.949720462 XXXX 3      oc23    O  -0.550
Si118   25.361745546    8.744759372   20.234795598 XXXX 3      sc4     Si  1.100
Si119   24.144885398    5.454355663   14.964362503 XXXX 3      sc4     Si  1.100
Si120   24.497558888   12.422884387    2.313306784 XXXX 3      sc4     Si  1.100
Si121   38.175677968   18.025897647   12.620785653 XXXX 3      sc4     Si  1.100
Si122   36.269231777    9.447280206    1.967097192 XXXX 3      sc4     Si  1.100
Si123   23.500815999    1.052517465    6.984423147 XXXX 3      sc4     Si  1.100
Si124   23.490738035   17.281198323   14.339556332 XXXX 3      sc4     Si  1.100
Si125   20.059223561    3.105501308    3.873833458 XXXX 3      sc4     Si  1.100
O230    39.626162345   17.870154943    4.769304166 XXXX 3      oc23    O  -0.550
O231    38.860102478   19.398621695   12.428192689 XXXX 3      oc23    O  -0.550
O232    24.079090275   11.309233487   22.073541737 XXXX 3      oc24    O  -0.675
O233    24.885788802    0.191878578   21.920162211 XXXX 3      oc23    O  -0.550
O234    23.245622907   11.603524730   13.152387881 XXXX 3      oc23    O  -0.550
O235    20.421250527    3.291531053    7.481706405 XXXX 3      oc23    O  -0.550
O236    37.710849276    4.908778963   16.674729045 XXXX 3      oc23    O  -0.550
O237    28.550806157   14.894260592   11.806054454 XXXX 3      oc23    O  -0.550
O238    21.417589720    6.743387040    4.976274570 XXXX 3      oc23    O  -0.550
O239    20.065874922    0.467199518   14.206030126 XXXX 3      oc23    O  -0.550
O240    34.525335417   16.504224596   17.216435233 XXXX 3      oc23    O  -0.550
O241    34.490987676    3.126084914   17.297339376 XXXX 3      oc23    O  -0.550
O242    20.066641462    0.100816870   20.188737134 XXXX 3      oc23    O  -0.550
O243    32.286011224    0.189291138    4.071148076 XXXX 3      oc23    O  -0.550
O244    21.037582695   18.760238490    8.473827227 XXXX 3      oc23    O  -0.550
Si126   21.615292278   17.326940357    8.794303946 XXXX 3      sc4     Si  1.100
Si127   30.159769770   20.336642695    4.181798428 XXXX 3      sc4     Si  1.100
Si128   24.903527365   15.195719671   15.785184502 XXXX 3      sc4     Si  1.100
Si129   38.408655805    6.264889189   11.022886782 XXXX 3      sc4     Si  1.100
Si130   22.348054493   19.135612102    2.388685798 XXXX 3      sc4     Si  1.100
Si131   30.002057075    5.153559038    1.879984049 XXXX 3      sc4     Si  1.100
Si132   27.018441321    0.937365569   19.458686838 XXXX 3      sc4     Si  1.100
Si133   38.965767317    0.782496928    8.342418589 XXXX 3      sc4     Si  1.100
O245    22.178288610    9.045638727    4.467216815 XXXX 3      oc23    O  -0.550
O246    24.492277208    2.911943482   21.494346560 XXXX 3      oc23    O  -0.550
O247    30.413751777    2.699799289   19.569124712 XXXX 3      oc23    O  -0.550
O248    22.555152579    3.695277506    8.936635851 XXXX 3      oc23    O  -0.550
O249    27.582242641   16.779706596   12.898910136 XXXX 3      oc23    O  -0.550
O250    22.834452047    1.004017188   20.439334466 XXXX 3      oc23    O  -0.550
O251    19.288163159    2.665435656    5.202248382 XXXX 3      oc23    O  -0.550
O252    23.669089652    0.264893755   12.985668680 XXXX 3      oc23    O  -0.550
O253    38.228449112    6.640884507    2.200908766 XXXX 3      oc24    O  -0.675
O254    34.301870852   10.686428133   12.525763687 XXXX 3      oc23    O  -0.550
O255    34.024424056   13.216721361   11.917979322 XXXX 3      oc23    O  -0.550
O256    29.978635539    5.326910788   19.467775547 XXXX 3      oc23    O  -0.550
O257    34.398303564    7.450796944   14.477685992 XXXX 3      oc23    O  -0.550
O258    37.573415060   11.084714126   14.361936873 XXXX 3      oc23    O  -0.550
O259    20.490431404   15.619278925   12.681693652 XXXX 3      oc23    O  -0.550
O260    30.726795846    0.648116430   21.323897035 XXXX 3      oc23    O  -0.550
Si134   39.380888623    3.199030153    6.556572994 XXXX 3      sc4     Si  1.100
Si135   28.598377321   15.551827175   13.213980453 XXXX 3      sc4     Si  1.100
Si136   36.984940269   11.887997086   20.028628671 XXXX 3      sc4     Si  1.100
Si137   34.181168364    3.468826966   13.164404142 XXXX 3      sc4     Si  1.100
Si138   21.985221339    5.322808884    4.959300256 XXXX 3      sc4     Si  1.100
Si139   31.049434887    0.659124940    9.907084537 XXXX 3      sc4     Si  1.100
Si140   21.255361885   17.360292714   16.400617722 XXXX 3      sc4     Si  1.100
Si141   20.175289561   16.003394705   11.154146791 XXXX 3      sc4     Si  1.100
O261    22.945117421    5.116104468   13.995377240 XXXX 3      oc23    O  -0.550
O262    22.965033055    6.249683620   11.426911835 XXXX 3      oc23    O  -0.550
O263    23.545080707   19.198422353   11.241543121 XXXX 3      oc23    O  -0.550
O264    25.176620018   17.607889916   10.073071322 XXXX 3      oc23    O  -0.550
O265    34.112674730   18.147997822   12.633864304 XXXX 3      oc23    O  -0.550
O266    35.148602494   18.853832778   10.309244779 XXXX 3      oc23    O  -0.550
O267    34.387459059    1.726893428    3.494549070 XXXX 3      oc23    O  -0.550
O268    26.019843356   18.903095139   11.986229418 XXXX 3      oc23    O  -0.550
O269    20.613592108   18.499134145   17.303902271 XXXX 3      oc23    O  -0.550
O270    37.020982089    9.916290089   10.399946126 XXXX 3      oc23    O  -0.550
O271    20.193551967    8.669974944   11.521744893 XXXX 3      oc23    O  -0.550
O272    37.345798201    4.604709581    3.464448966 XXXX 3      oc23    O  -0.550
O273    33.767861283    3.576516765   14.617137659 XXXX 3      oc23    O  -0.550
O274    36.253831283    4.754030557   19.029142270 XXXX 3      oc23    O  -0.550
O275    22.135958276   10.973676250   15.469193213 XXXX 3      oc23    O  -0.550
O276    20.754854220   16.376034538    7.864087818 XXXX 3      oc23    O  -0.550
Si142   24.771740077   11.524016691   20.559025684 XXXX 3      sc4     Si  1.100
Si143   35.361907395   18.857603764   11.925533898 XXXX 3      sc4     Si  1.100
Si144   36.374533771   19.083366537   21.297338699 XXXX 3      sc4     Si  1.100
Si145   27.228360468    7.764354294    3.639785485 XXXX 3      sc4     Si  1.100
Si146   34.151174765    1.623785859    9.649215816 XXXX 3      sc4     Si  1.100
Si147   27.395627285   19.203145346   15.340789696 XXXX 3      sc4     Si  1.100
Si148   26.862220857    1.440544686   15.486403223 XXXX 3      sc4     Si  1.100
O277    25.285872458   18.138094971   18.015561968 XXXX 3      oc23    O  -0.550
O278    31.467338807    2.630052720   15.773380719 XXXX 3      oc23    O  -0.550
O279    35.596257315    4.040302338   12.960927664 XXXX 3      oc23    O  -0.550
O280    33.045056886   19.476597385    7.648198617 XXXX 3      oc23    O  -0.550
O281    25.787833907    4.364321272   17.369626906 XXXX 3      oc23    O  -0.550
O282    25.909019388    1.755920697   16.664931842 XXXX 3      oc23    O  -0.550
O283    37.878075243    8.186712118   20.199124632 XXXX 3      oc23    O  -0.550
O284    25.905470234    3.690102588   12.032760681 XXXX 3      oc23    O  -0.550
O285    25.884992310    6.730253414    3.308212949 XXXX 3      oc23    O  -0.550
O286    20.425522968   19.874343785    6.139225053 XXXX 3      oc23    O  -0.550
O287    40.013911669    8.248404285   21.466064480 XXXX 3      oc23    O  -0.550
O288    19.820519499    9.853520585   19.613625474 XXXX 3      oc23    O  -0.550
O289    29.048290913   12.988886644   17.270945675 XXXX 3      oc23    O  -0.550
O290    31.346071626   16.512386422    2.407784891 XXXX 3      oc23    O  -0.550
O291    33.370721238    7.287554868    3.329861778 XXXX 3      oc23    O  -0.550
O292    28.456187671   10.905976312    4.575104954 XXXX 3      oc24    O  -0.675
Si149   36.698746743    1.326573461   21.877786229 XXXX 3      sc4     Si  1.100
Si150   32.981924229    5.926555572   19.295533327 XXXX 3      sc4     Si  1.100
Si151   22.000097991    3.555386464    7.378613180 XXXX 3      sc4     Si  1.100
Si152   28.953309582    5.761863260    5.215091337 XXXX 3      sc4     Si  1.100
Si153   26.775786812    3.296896435   10.786619399 XXXX 3      sc4     Si  1.100
Si154   31.180580587    5.273131640   13.248943628 XXXX 3      sc4     Si  1.100
Si155   35.118003353   11.536405133    3.893546065 XXXX 3      sc4     Si  1.100
Si156   24.846724074    5.395355910    3.838327127 XXXX 3      sc4     Si  1.100
O293    34.575042802   18.945770006   17.921531331 XXXX 3      oc23    O  -0.550
O294    25.288172080   10.224420010   19.951973383 XXXX 3      oc23    O  -0.550
O295    21.950914448   15.187682557    2.983179386 XXXX 3      oc23    O  -0.550
O296    26.950673378   10.418528852   12.613042169 XXXX 3      oc23    O  -0.550
O297    37.594460080    3.470778210   14.377943076 XXXX 3      oc23    O  -0.550
O298    30.578800673   18.774490198    3.821400656 XXXX 3      oc23    O  -0.550
O299    38.310329570    1.308832293   15.223647509 XXXX 3      oc23    O  -0.550
O300    30.934821469   19.645763267   10.446571667 XXXX 3      oc23    O  -0.550
O301    23.152172254   16.543419882   21.673506275 XXXX 3      oc23    O  -0.550
O302    39.149561611   10.712406447    4.448024850 XXXX 3      oc23    O  -0.550
O303    33.454978212    8.555374140    9.619823854 XXXX 3      oc23    O  -0.550
O304    21.612067522    7.555993126    2.537085460 XXXX 3      oc24    O  -0.675
O305    26.933941650    9.972016468    6.975844086 XXXX 3      oc23    O  -0.550
O306    30.601578218    1.192425023    8.362173761 XXXX 3      oc23    O  -0.550
O307    30.427297195    1.671440859   10.983509061 XXXX 3      oc23    O  -0.550
O308    31.517449887    4.062717107    7.258149354 XXXX 3      oc23    O  -0.550
Si157   32.390104534   11.410658683   18.717069862 XXXX 3      sc4     Si  1.100
Si158   32.584462189    5.374184553   22.101659183 XXXX 3      sc4     Si  1.100
Si159   25.606053283    3.353703855   13.563117598 XXXX 3      sc4     Si  1.100
Si160   27.610061571   14.010102704   10.793371202 XXXX 3      sc4     Si  1.100
Si161   32.621147998   17.946016708    7.684413091 XXXX 3      sc4     Si  1.100
Si162   37.763137428   10.456978337    9.155032220 XXXX 3      sc4     Si  1.100
Si163   29.187337507    7.444416273   12.675626774 XXXX 3      sc4     Si  1.100
Si164   31.697334585    7.390637742    3.214725467 XXXX 3      sc4     Si  1.100
O309    25.340823076   20.246195834    9.840392143 XXXX 3      oc23    O  -0.550
O310    24.668814599   16.488149133   14.892027834 XXXX 3      oc23    O  -0.550
O311    31.255242589   13.340271155   16.188855308 XXXX 3      oc23    O  -0.550
O312    27.836993591   12.524184872   11.101571868 XXXX 3      oc23    O  -0.550
O313    30.242171668    3.683800942    9.641425192 XXXX 3      oc23    O  -0.550
O314    36.446819257   19.506345450   19.712968059 XXXX 3      oc23    O  -0.550
O315    37.873557701    7.644864421   10.713009863 XXXX 3      oc23    O  -0.550
O316    37.896820642    1.199596872   20.795318044 XXXX 3      oc23    O  -0.550
O317    30.080751223    5.956925344    8.722890250 XXXX 3      oc23    O  -0.550
O318    20.190771756   10.947822648   17.218913908 XXXX 3      oc23    O  -0.550
O319    25.434110329    4.674108253   14.453488131 XXXX 3      oc23    O  -0.550
O320    27.789703571   14.524065602    9.254586580 XXXX 3      oc23    O  -0.550
O321    38.405753043    6.139391545   21.493873762 XXXX 3      oc23    O  -0.550
O322    34.084170959    3.295885468    9.490736116 XXXX 3      oc23    O  -0.550
O323    27.641263853    1.375716049   18.153785203 XXXX 3      oc23    O  -0.550
O324    25.577470215    8.371581797   12.771450809 XXXX 3      oc23    O  -0.550
Si165   24.989478417   19.496609293   18.814688703 XXXX 3      sc4     Si  1.100
Si166   29.511346229    8.985354813   17.324063754 XXXX 3      sc4     Si  1.100
Si167   33.851474267    2.016904960   18.393806480 XXXX 3      sc4     Si  1.100
Si168   28.279124034   13.481388015    6.306955206 XXXX 3      sc4     Si  1.100
Si169   27.549790826   16.459146868    1.835058331 XXXX 3      sc4     Si  1.100
Si170   36.044760377   15.753021742    4.264449534 XXXX 3      sc4     Si  1.100
Si171   38.537059742    7.705231064   21.489058533 XXXX 3      sc4     Si  1.100
Si172   36.374615471   12.870722913    8.076029818 XXXX 3      sc4     Si  1.100
O325    21.407994748    0.289716904   16.070887131 XXXX 3      oc23    O  -0.550
O326    32.114109120   11.675243843    1.578417338 XXXX 3      oc24    O  -0.675
O327    30.205567559   18.739688222   21.756275580 XXXX 3      oc24    O  -0.675
O328    25.153438777   13.033301300    3.610298893 XXXX 3      oc23    O  -0.550
O329    33.416276329   12.559899343   19.029260470 XXXX 3      oc23    O  -0.550
O330    28.586847976    8.503998471   18.640508852 XXXX 3      oc23    O  -0.550
O331    24.497679036    9.290087266    5.950642138 XXXX 3      oc23    O  -0.550
O332    30.670960943    4.914123662   14.706824459 XXXX 3      oc23    O  -0.550
O333    28.693721497    6.792525924   20.664341574 XXXX 3      oc23    O  -0.550
O334    38.301823133   15.390574931   21.834442135 XXXX 3      oc23    O  -0.550
O335    35.849677032   12.919280221   19.534279737 XXXX 3      oc23    O  -0.550
O336    23.282794112    5.616893303    3.987198181 XXXX 3      oc23    O  -0.550
O337    30.867735963   13.818023206    2.612017003 XXXX 3      oc23    O  -0.550
O338    26.005774095   10.996131767    4.772467414 XXXX 3      oc23    O  -0.550
O339    27.724151146    9.213686525    2.698586990 XXXX 3      oc23    O  -0.550
O340    24.322874170    5.484600723    9.304918525 XXXX 3      oc23    O  -0.550
Si173   25.849676181   12.583432813    4.930569298 XXXX 3      sc4     Si  1.100
Si174   30.028624069   11.518092267   21.755898467 XXXX 3      sc4     Si  1.100
Si175   22.944149033    9.333383839    8.781508482 XXXX 3      sc4     Si  1.100
Si176   25.106593303   11.170767678    9.685123181 XXXX 3      sc4     Si  1.100
Si177   22.126524301   12.823531260   19.830464141 XXXX 3      sc4     Si  1.100
Si178   22.889642960    7.685923591   19.440060543 XXXX 3      sc4     Si  1.100
Si179   27.496212291   12.654944485   19.882967301 XXXX 3      sc4     Si  1.100
Si180   33.764112684   16.873921973   13.356760707 XXXX 3      sc4     Si  1.100
O341    33.809506778    9.806702450   21.236382857 XXXX 3      oc23    O  -0.550
O342    28.175999111    1.878820386   16.030328468 XXXX 3      oc23    O  -0.550
O343    27.684038733   12.607049014    7.437821707 XXXX 3      oc23    O  -0.550
O344    23.564472499   12.166254847   19.595683048 XXXX 3      oc23    O  -0.550
O345    30.130581159   10.283999487   10.898992793 XXXX 3      oc23    O  -0.550
O346    26.747847734    8.182278678   20.278706769 XXXX 3      oc23    O  -0.550
O347    38.496783928   17.171653283   16.912294866 XXXX 3      oc23    O  -0.550
O348    39.465227297    5.247568209   14.519519522 XXXX 3      oc23    O  -0.550
O349    27.755999821    4.801967394    5.378126648 XXXX 3      oc23    O  -0.550
O350    27.284721616   13.220823265    5.052739894 XXXX 3      oc23    O  -0.550
O351    34.971579708    0.935923744   18.788105038 XXXX 3      oc23    O  -0.550
O352    38.972901670    1.426358266    9.871696406 XXXX 3      oc23    O  -0.550
O353    31.146835987   17.645593600    8.177671141 XXXX 3      oc23    O  -0.550
O354    30.249428571   19.225146468   17.679550613 XXXX 3      oc23    O  -0.550
O355    30.010522661   10.102651370   21.112796679 XXXX 3      oc23    O  -0.550
O356    31.121720373    9.136125718   17.655848768 XXXX 3      oc23    O  -0.550
Si181   28.129677480   11.794029897   17.164922699 XXXX 3      sc4     Si  1.100
Si182   33.298719300   10.139277101    9.126230554 XXXX 3      sc4     Si  1.100
Si183   27.760836955    7.348832771   19.532886669 XXXX 3      sc4     Si  1.100
Si184   29.626161494    0.395124019    2.040234633 XXXX 3      sc4     Si  1.100
Si185   30.124655489    6.351109434   20.623381173 XXXX 3      sc4     Si  1.100
Si186   32.590467156   13.607549347   15.299735720 XXXX 3      sc4     Si  1.100
Si187   32.627114518    8.389355686   17.828634848 XXXX 3      sc4     Si  1.100
Si188   26.372437549   17.141863236   17.408461823 XXXX 3      sc4     Si  1.100
O357    31.648715735   14.218546602   11.216306088 XXXX 3      oc23    O  -0.550
O358    29.879501914   13.152294796    5.957936745 XXXX 3      oc23    O  -0.550
O359    23.535889430    1.580970075   10.294537014 XXXX 3      oc23    O  -0.550
O360    24.135290426   16.909636444    3.009573087 XXXX 3      oc23    O  -0.550
O361    21.301806067   16.929482893   10.323173342 XXXX 3      oc23    O  -0.550
O362    21.697292884    9.780269123    9.703112394 XXXX 3      oc23    O  -0.550
O363    38.783664698   13.227576219    4.826481840 XXXX 3      oc23    O  -0.550
O364    32.239528595    5.105125207    9.658304877 XXXX 3      oc23    O  -0.550
O365    33.089564291    7.654476483   16.536906141 XXXX 3      oc23    O  -0.550
O366    24.702801898    1.084498843    8.111706061 XXXX 3      oc23    O  -0.550
O367    26.979417443   17.753979192   16.061467744 XXXX 3      oc23    O  -0.550
O368    38.529761988   15.771292625    9.100545347 XXXX 3      oc23    O  -0.550
O369    23.218248521   17.135731371    8.366135208 XXXX 3      oc23    O  -0.550
O370    29.296993643   11.431541104   12.928679563 XXXX 3      oc23    O  -0.550
O371    32.999703642    1.444186484   22.155012254 XXXX 3      oc24    O  -0.675
O372    31.012143535    5.608233865   21.819356201 XXXX 3      oc23    O  -0.550
Si189   30.066802109   19.473489471   16.174454650 XXXX 3      sc4     Si  1.100
Si190   30.291316763   15.793624665   19.601325674 XXXX 3      sc4     Si  1.100
Si191   25.135661767   18.236911100    2.757937287 XXXX 3      sc4     Si  1.100
Si192   34.380565000   13.210340072   20.039346846 XXXX 3      sc4     Si  1.100
Si193   21.006257863    0.678295507    2.897152554 XXXX 3      sc4     Si  1.100
Si194   20.162791827    6.453156336    8.749661591 XXXX 3      sc4     Si  1.100
Si195   30.489382167   13.369190690   17.632429759 XXXX 3      sc4     Si  1.100
Si196   29.630960181    7.187745368    7.870516155 XXXX 3      sc4     Si  1.100
O373    24.832412115    4.117088327    2.803003718 XXXX 3      oc23    O  -0.550
O374    30.372147133   14.840771615   18.254190178 XXXX 3      oc23    O  -0.550
O375    22.500526359    0.297600984    2.471196190 XXXX 3      oc24    O  -0.675
O376    22.082985284    8.866196476   19.967342152 XXXX 3      oc23    O  -0.550
O377    26.602190629    2.233764120   14.144296137 XXXX 3      oc23    O  -0.550
O378    20.039429276   14.507036897   10.322394139 XXXX 3      oc23    O  -0.550
O379    30.724498627    7.797126927   20.142181950 XXXX 3      oc23    O  -0.550
O380    24.332952135   -0.029716388   17.981330504 XXXX 3      oc23    O  -0.550
O381    31.055925250   12.254587783   18.595252457 XXXX 3      oc23    O  -0.550
O382    28.426516067    7.184969606   11.251741711 XXXX 3      oc23    O  -0.550
O383    35.709462605   15.093838845    2.892006648 XXXX 3      oc23    O  -0.550
O384    32.675733368    0.858126864   10.063628366 XXXX 3      oc23    O  -0.550
O385    23.963991462   19.098530741    2.063417243 XXXX 3      oc23    O  -0.550
O386    26.455848685    2.880351597    6.435835260 XXXX 3      oc23    O  -0.550
O387    26.318899864    0.567754934    5.160249513 XXXX 3      oc23    O  -0.550
O388    22.818729558   13.650306943    4.744680646 XXXX 3      oc23    O  -0.550
Si197   25.250839877    2.609407375    2.385829306 XXXX 3      sc4     Si  1.100
Si198   28.261385471    2.845888565    2.973641800 XXXX 3      sc4     Si  1.100
Si199   31.356029443   13.891316650    9.697352272 XXXX 3      sc4     Si  1.100
Si200   30.996019753    4.670586382    8.743735955 XXXX 3      sc4     Si  1.100
Si201   31.044799600    3.499250450    5.738949377 XXXX 3      sc4     Si  1.100
Si202   31.181505723    9.208217731   20.668920403 XXXX 3      sc4     Si  1.100
Si203   31.866172930   15.042918188    2.960209254 XXXX 3      sc4     Si  1.100
O389    30.302603410    4.794799557    5.084798735 XXXX 3      oc23    O  -0.550
O390    32.222796867   15.257329726    4.531195190 XXXX 3      oc23    O  -0.550
O391    33.527948538   15.580002144   12.463793299 XXXX 3      oc23    O  -0.550
O392    24.163349652   15.191244866    9.701011536 XXXX 3      oc23    O  -0.550
O393    29.862489041   -0.156363792    3.493486681 XXXX 3      oc23    O  -0.550
O394    32.221708332    4.621033850   19.014551649 XXXX 3      oc23    O  -0.550
O395    28.814142840   15.727126157   20.383147418 XXXX 3      oc23    O  -0.550
O396    30.793919799    4.028949868    1.059964118 XXXX 3      oc24    O  -0.675
O397    36.102327805    6.835739150    3.684262325 XXXX 3      oc23    O  -0.550
O398    24.666558231    1.356914215    3.310927319 XXXX 3      oc23    O  -0.550
O399    31.015570139    7.984731003    4.596635583 XXXX 3      oc23    O  -0.550
O400    23.288962479   15.689589166    0.814630892 XXXX 3      oc24    O  -0.675
O401    32.479561488   17.189799455   14.233132321 XXXX 3      oc23    O  -0.550
O402    31.665082215   15.518474818   20.481379771 XXXX 3      oc23    O  -0.550
O403    27.179054375   12.305797376   15.998977418 XXXX 3      oc23    O  -0.550
Si204   25.026728919   19.018565838   10.794315392 XXXX 3      sc4     Si  1.100
Si205   20.612222427   13.061267593    7.301337607 XXXX 3      sc4     Si  1.100
Si206   30.931676010   17.489311303   14.008833708 XXXX 3      sc4     Si  1.100
Si207   27.329671164    1.689331279    5.758567704 XXXX 3      sc4     Si  1.100
Si208   34.528601024   15.749210008   15.867929887 XXXX 3      sc4     Si  1.100
Si209   30.171782108   18.584028248   11.357339731 XXXX 3      sc4     Si  1.100
Si210   27.812481117    7.251260673   15.416972889 XXXX 3      sc4     Si  1.100
Si211   24.961017899    1.036876872    9.663309717 XXXX 3      sc4     Si  1.100
O404    32.627679211    4.698014316   16.382770278 XXXX 3      oc23    O  -0.550
O405    30.888701686    8.001096637    7.253640266 XXXX 3      oc23    O  -0.550
O406    27.417880988    5.836067964   16.095297469 XXXX 3      oc23    O  -0.550
O407    27.022391768   12.676945607   13.453694974 XXXX 3      oc23    O  -0.550
O408    35.288574223    1.427547349   10.734328014 XXXX 3      oc23    O  -0.550
O409    30.020603028   20.515296546    5.825897884 XXXX 3      oc23    O  -0.550
O410    33.728272713   12.429471882   15.427147205 XXXX 3      oc23    O  -0.550
O411    29.045104604   10.589518488    8.428334784 XXXX 3      oc23    O  -0.550
O412    34.435393068    1.893201437   12.986046497 XXXX 3      oc23    O  -0.550
O413    35.534294894   20.037213577    6.727966138 XXXX 3      oc23    O  -0.550
O414    24.391045809    8.022475435   19.186983833 XXXX 3      oc23    O  -0.550
O415    39.325495862    3.390648774    2.524407140 XXXX 3      oc23    O  -0.550
O416    37.185668140   11.912773969    9.031752095 XXXX 3      oc23    O  -0.550
O417    27.321972119   16.745649185   18.575776250 XXXX 3      oc23    O  -0.550
O418    37.664767940   12.664101535   21.300856546 XXXX 3      oc23    O  -0.550
O419    20.755500613    4.485385476    4.186000144 XXXX 3      oc23    O  -0.550
O420    39.523400268   13.481554709   23.130891089 XXXX 3      oc24    O  -0.675
Si212   40.405335457    3.265470318   17.881350485 XXXX 3      sc4     Si  1.100
O421    25.244106817   18.108222194   22.254072004 XXXX 3      oc23    O  -0.550
O422    25.855601851   16.074740918   20.644037969 XXXX 3      oc23    O  -0.550
O423    34.232408830   18.187482044   24.002187154 XXXX 3      oc24    O  -0.675
O424    35.294704144    0.716632474    1.226990075 XXXX 3      oc24    O  -0.675
O425    33.896344518   11.143962068   23.490911748 XXXX 3      oc24    O  -0.675
O426    27.260975683   12.032346572    2.471242625 XXXX 3      oc23    O  -0.550
O427    30.189198676   18.446431716    1.188580817 XXXX 3      oc24    O  -0.675
H1      25.572932334    8.060690899   22.166914149 XXXX 3      hoy     H   0.400
H2      35.206820548   14.236097770    0.188131817 XXXX 3      hoy     H   0.400
O428    37.218968195    3.831406515    0.922117996 XXXX 3      oc24    O  -0.675
H3      22.516042579   12.335651617   21.800726604 XXXX 3      hoy     H   0.400
O429    39.722556610   10.556290843    1.925004044 XXXX 3      oc24    O  -0.675
H4      35.697347575    5.485066563    1.461820259 XXXX 3      hoy     H   0.400
O430    36.543090971   10.018668527    0.523098488 XXXX 3      oc24    O  -0.675
O431    35.426693280    8.136786685    1.772402666 XXXX 3      oc23    O  -0.550
H5      24.389609467   10.479551071   22.394461468 XXXX 3      hoy     H   0.400
O432    21.531357300   20.330261407    1.789022381 XXXX 3      oc23    O  -0.550
O433    29.317714265    6.163339281    0.726102168 XXXX 3      oc24    O  -0.675
H6      39.109204590    6.912065626    2.370174078 XXXX 3      hoy     H   0.400
H7      22.501168621    7.804004474    2.375832472 XXXX 3      hoy     H   0.400
O434    33.118632755    6.273880162   23.389656861 XXXX 3      oc24    O  -0.675
O435    27.124589152   14.857344690    2.163514055 XXXX 3      oc23    O  -0.550
O436    28.163179383   16.578967659    0.357772354 XXXX 3      oc24    O  -0.675
O437    37.740520880    8.287143324   22.832818304 XXXX 3      oc24    O  -0.675
H8      31.843049673   12.054502704    0.774411131 XXXX 3      hoy     H   0.400
H9      30.670745014   18.087424500   22.255337988 XXXX 3      hoy     H   0.400
O438    29.624349671   11.312175943   23.348060434 XXXX 3      oc24    O  -0.675
O439    31.720717674   11.759226686   21.778844678 XXXX 3      oc23    O  -0.550
O440    22.823004402    6.822066548   20.839558485 XXXX 3      oc24    O  -0.675
O441    30.821092337    0.192284200    0.975282511 XXXX 3      oc24    O  -0.675
O442    28.279568579   -0.247060077    1.423053747 XXXX 3      oc24    O  -0.675
O443    20.142110854    0.783549337    1.529548818 XXXX 3      oc24    O  -0.675
H10     22.819247812    0.930320958    1.836373737 XXXX 3      hoy     H   0.400
O444    31.911728021    8.795141052   22.075855073 XXXX 3      oc24    O  -0.675
H11     30.537381648    3.179225945    1.374463309 XXXX 3      hoy     H   0.400
H12     39.151453073   14.036402536   23.791411995 XXXX 3      hoy     H   0.400
H13     34.698052919   18.983910486   24.182689793 XXXX 3      hoy     H   0.400
H14     34.813874468   11.330849852   23.476260924 XXXX 3      hoy     H   0.400
H15     29.359448137   18.347278917    0.765239791 XXXX 3      hoy     H   0.400
H16     37.461462277    3.130859285    0.345092210 XXXX 3      hoy     H   0.400
H17     36.275065340    9.360734518   -0.094337351 XXXX 3      hoy     H   0.400
H18     30.006784608    6.347269295    0.118526924 XXXX 3      hoy     H   0.400
H19     34.029084923    6.081012346   23.530199946 XXXX 3      hoy     H   0.400
H20     28.373520461   15.735417101    0.003280832 XXXX 3      hoy     H   0.400
H21     21.944965880    6.498108599   20.981969780 XXXX 3      hoy     H   0.400
H22     32.843119937    8.756349799   21.947118551 XXXX 3      hoy     H   0.400
Si213   24.910704971   16.559329886   21.916690800 XXXX 3      sc4     Si  1.100
O445    25.271601349   15.693152711   23.261797202 XXXX 3      oc24    O  -0.675
H23     24.820671798   14.866712389   23.229421467 XXXX 3      hoy     H   0.400
Si214   26.943577472   13.376565968    1.436722692 XXXX 3      sc4     Si  1.100
O446    27.670695162   13.201515175    0.024995308 XXXX 3      oc24    O  -0.675
H24     27.149680176   12.617247635   -0.491541621 XXXX 3      hoy     H   0.400
O447    25.422379136   13.094248285    1.200147497 XXXX 3      oc23    O  -0.550
Si215   29.716668536    1.870770152   20.768192632 XXXX 3      sc4     Si  1.100
O448    29.594151822    2.930878054   22.027978586 XXXX 3      oc24    O  -0.675
H25     29.807431361    2.495685137   22.828908315 XXXX 3      hoy     H   0.400
O449    22.977691786   19.239109241   22.531841185 XXXX 3      oc24    O  -0.675
H26     23.042033172   19.620604246   23.388285614 XXXX 3      hoy     H   0.400
O450    39.480303393    2.473510349   19.054826773 XXXX 3      oc23    O  -0.550
O451    40.251082651    4.867222797   17.573220880 XXXX 3      oc23    O  -0.550
O452    22.652149984    4.457087339   21.227743026 XXXX 3      oc23    O  -0.550
O453    40.770752251    5.769403997   19.678759110 XXXX 3      oc23    O  -0.550
Si216   40.607414498    6.349203567   18.281480226 XXXX 3      sc4     Si  1.100
O454    39.417050589    7.463806474   18.175410110 XXXX 3      oc23    O  -0.550
Si217   39.423461655    1.496026118   20.467947225 XXXX 3      sc4     Si  1.100
Si218   24.169114325    4.397301037   20.940671251 XXXX 3      sc4     Si  1.100
O455    24.958276135    5.482694856   21.877926943 XXXX 3      oc24    O  -0.675
H27     24.387793137    6.236722732   21.876065509 XXXX 3      hoy     H   0.400
O456    39.939972955    2.231518538   21.852595632 XXXX 3      oc24    O  -0.675
H28     40.008681480    1.576383860   22.523838557 XXXX 3      hoy     H   0.400
H29     32.188892638    1.296119600   21.704909177 XXXX 3      hoy     H   0.400
O457    37.241181047    1.581359490   23.334862880 XXXX 3      oc24    O  -0.675
H30     36.713437909    1.062292800   23.919795717 XXXX 3      hoy     H   0.400
H31     38.271927396    3.368217490   22.371800309 XXXX 3      hoy     H   0.400
H32     28.102381434   -1.054582898    1.870068740 XXXX 3      hoy     H   0.400
O458    24.695504144    2.342904310    0.897211641 XXXX 3      oc24    O  -0.675
H33     24.731979032    3.139622179    0.407469645 XXXX 3      hoy     H   0.400
H34     29.196510860   10.365199343    4.797279789 XXXX 3      hoy     H   0.400
O459    24.616286153   10.815571433    2.438097473 XXXX 3      oc24    O  -0.675
H35     25.400546126   10.706974824    2.943148156 XXXX 3      hoy     H   0.400
H36     32.177864145    8.871504900    1.758585026 XXXX 3      hoy     H   0.400
H37     24.231974332   15.587719285    0.851196594 XXXX 3      hoy     H   0.400
H38     40.204649005   11.288206295    2.241852744 XXXX 3      hoy     H   0.400
H39     20.635054122   10.465047808   22.559256756 XXXX 3      hoy     H   0.400
H40     38.350421010    8.782419251   23.333302593 XXXX 3      hoy     H   0.400
H41     34.354513997    0.816960916    1.145799999 XXXX 3      hoy     H   0.400
H42     30.156931927   10.628166291   23.706398077 XXXX 3      hoy     H   0.400
Si1     35.682974908   41.002667546   18.344466569 XXXX 4      sc4     Si  1.100
Si2     34.487842217   27.697905890   16.200541595 XXXX 4      sc4     Si  1.100
Si3     38.825391892   34.973774900   21.664487923 XXXX 4      sc4     Si  1.100
Si4     37.249365489   35.405497216   16.283428396 XXXX 4      sc4     Si  1.100
Si5     28.495170698   23.007804594   17.357562802 XXXX 4      sc4     Si  1.100
Si6     37.911252748   22.934427186   13.868437851 XXXX 4      sc4     Si  1.100
Si7     20.555498433   20.153720247   17.374348560 XXXX 4      sc4     Si  1.100
Si8     33.731658467   23.235140464   21.591233689 XXXX 4      sc4     Si  1.100
O1      29.097919001   40.384297483   14.934286320 XXXX 4      oc23    O  -0.550
O2      34.522836351   26.549244338   10.389369719 XXXX 4      oc23    O  -0.550
O3      32.590993402   33.041098965    6.497142579 XXXX 4      oc23    O  -0.550
O4      28.240100156   23.772141691   11.470846223 XXXX 4      oc23    O  -0.550
O5      36.887539170   38.803501202   11.979596167 XXXX 4      oc23    O  -0.550
O6      22.007837887   39.619007144   20.253941127 XXXX 4      oc23    O  -0.550
O7      23.935206547   25.818964651   16.704097437 XXXX 4      oc23    O  -0.550
O8      28.848771726   28.824316897    8.997284584 XXXX 4      oc23    O  -0.550
O9      38.277834502   38.638145819   14.091414457 XXXX 4      oc23    O  -0.550
O10     36.608479996   35.004394713    8.485489416 XXXX 4      oc23    O  -0.550
O11     29.400036865   22.591867571    2.389252875 XXXX 4      oc23    O  -0.550
O12     32.258153846   31.005628475   19.935283311 XXXX 4      oc23    O  -0.550
O13     33.750687413   23.050231272    1.015038401 XXXX 4      oc24    O  -0.675
O14     39.188184196   23.022471186   12.834012196 XXXX 4      oc23    O  -0.550
O15     20.317116366   21.198677219   11.713369745 XXXX 4      oc23    O  -0.550
O16     22.166314720   33.672935424    7.465922179 XXXX 4      oc23    O  -0.550
Si9     27.637152409   28.368563499    9.990986941 XXXX 4      sc4     Si  1.100
Si10    33.525086627   25.280390328   10.644547288 XXXX 4      sc4     Si  1.100
Si11    35.109335919   28.049165690    2.693062564 XXXX 4      sc4     Si  1.100
Si12    34.808667032   28.176030841    9.919384337 XXXX 4      sc4     Si  1.100
Si13    37.759547423   21.673320120   16.934816824 XXXX 4      sc4     Si  1.100
Si14    37.788010344   27.153738062    3.660442281 XXXX 4      sc4     Si  1.100
Si15    22.628041205   25.793192544   12.495805704 XXXX 4      sc4     Si  1.100
Si16    31.532367389   29.529281341    6.129084057 XXXX 4      sc4     Si  1.100
O17     33.305651806   23.183433259   20.017721939 XXXX 4      oc23    O  -0.550
O18     38.528070313   25.219526074    6.557684941 XXXX 4      oc23    O  -0.550
O19     30.154769235   37.985715876   10.421948498 XXXX 4      oc23    O  -0.550
O20     38.444495776   25.211986571   19.249096342 XXXX 4      oc23    O  -0.550
O21     35.707686826   29.361026719    6.505400592 XXXX 4      oc23    O  -0.550
O22     37.518507695   24.488127686   21.629524747 XXXX 4      oc24    O  -0.675
O23     40.065111285   23.025992748   16.325662961 XXXX 4      oc23    O  -0.550
O24     37.323099953   23.027857250   17.857861119 XXXX 4      oc23    O  -0.550
O25     23.003088545   24.513897324   11.543747265 XXXX 4      oc23    O  -0.550
O26     30.933934781   31.065248082    6.244374977 XXXX 4      oc23    O  -0.550
O27     30.215323528   23.143950272    6.727671035 XXXX 4      oc23    O  -0.550
O28     33.152860348   29.495265912    6.110716428 XXXX 4      oc23    O  -0.550
O29     28.839056607   22.599367561    5.061970724 XXXX 4      oc23    O  -0.550
O30     36.589330902   20.582500107   17.292901261 XXXX 4      oc23    O  -0.550
O31     20.084219028   37.818703432   15.346904417 XXXX 4      oc23    O  -0.550
Si17    37.597564689   33.899609457   11.811460681 XXXX 4      sc4     Si  1.100
Si18    21.639280910   28.765897486    3.937409392 XXXX 4      sc4     Si  1.100
Si19    33.911502314   38.534067103   17.907012474 XXXX 4      sc4     Si  1.100
Si20    34.812901027   32.349887384   11.509728280 XXXX 4      sc4     Si  1.100
Si21    21.024277571   32.636060018   16.107975085 XXXX 4      sc4     Si  1.100
Si22    23.199825118   33.187436430    6.369291781 XXXX 4      sc4     Si  1.100
Si23    24.464621678   40.171418294   21.772376061 XXXX 4      sc4     Si  1.100
Si24    31.212549410   22.059178160   16.806154393 XXXX 4      sc4     Si  1.100
O32     23.754315013   35.306846546   16.441459923 XXXX 4      oc23    O  -0.550
O33     34.516547836   31.504840818    5.072404658 XXXX 4      oc23    O  -0.550
O34     39.995163868   27.141886745    7.373679136 XXXX 4      oc23    O  -0.550
O35     22.819133253   37.037170936   13.531034132 XXXX 4      oc23    O  -0.550
O36     37.469081455   27.470816974    7.184084345 XXXX 4      oc23    O  -0.550
O37     37.148496935   37.755935163    4.313743010 XXXX 4      oc23    O  -0.550
O38     25.128928706   40.022428544    3.830252966 XXXX 4      oc23    O  -0.550
O39     20.352675192   41.052055854    3.944326886 XXXX 4      oc23    O  -0.550
O40     21.079509334   25.690938817   12.693993452 XXXX 4      oc23    O  -0.550
O41     34.830478593   37.329722388   14.518504272 XXXX 4      oc23    O  -0.550
O42     20.150939286   21.169425531    8.266576099 XXXX 4      oc23    O  -0.550
O43     34.778834431   26.120712667   16.279981610 XXXX 4      oc23    O  -0.550
O44     39.118921619   27.209174270   12.542124489 XXXX 4      oc23    O  -0.550
O45     28.225182654   35.159681786   14.451032674 XXXX 4      oc23    O  -0.550
O46     26.277980060   22.618385480   10.136010174 XXXX 4      oc23    O  -0.550
O47     30.405608185   25.023760788   17.521047695 XXXX 4      oc23    O  -0.550
Si25    33.707066695   39.092405146   22.222837747 XXXX 4      sc4     Si  1.100
Si26    36.498987261   29.939871812   16.581171207 XXXX 4      sc4     Si  1.100
Si27    20.747638167   39.654430210    4.600341986 XXXX 4      sc4     Si  1.100
Si28    35.124090020   30.017017737   20.187367988 XXXX 4      sc4     Si  1.100
Si29    33.985078184   24.764520946   16.255429854 XXXX 4      sc4     Si  1.100
Si30    22.119872941   35.430770476   16.527203216 XXXX 4      sc4     Si  1.100
Si31    34.128921062   23.440892565    2.555829954 XXXX 4      sc4     Si  1.100
Si32    34.754564655   34.874462395    2.211155550 XXXX 4      sc4     Si  1.100
O48     34.619953903   33.655782007    3.285596008 XXXX 4      oc23    O  -0.550
O49     29.144884623   28.626852570   16.285765654 XXXX 4      oc23    O  -0.550
O50     31.619406977   29.385470214    2.179473822 XXXX 4      oc24    O  -0.675
O51     20.014353310   25.183107784   20.898034948 XXXX 4      oc23    O  -0.550
O52     33.265419245   26.616240458   21.009605569 XXXX 4      oc23    O  -0.550
O53     19.965250267   35.146341337   20.807192888 XXXX 4      oc23    O  -0.550
O54     25.958484075   36.636110415    7.923555962 XXXX 4      oc23    O  -0.550
O55     36.472540414   31.197333838   20.369927349 XXXX 4      oc23    O  -0.550
O56     25.707284683   34.951237889   14.912472152 XXXX 4      oc23    O  -0.550
O57     24.286469506   20.734554554    5.546805994 XXXX 4      oc23    O  -0.550
O58     28.655906302   39.503575959   11.748049734 XXXX 4      oc23    O  -0.550
O59     21.499268330   20.731405892   18.500183352 XXXX 4      oc23    O  -0.550
O60     29.255629294   33.526555977   20.784740583 XXXX 4      oc23    O  -0.550
O61     30.171621110   38.008793717   18.910111000 XXXX 4      oc23    O  -0.550
O62     21.620655659   36.843393630   17.193181562 XXXX 4      oc23    O  -0.550
O63     34.458132166   31.569019194   10.137544659 XXXX 4      oc23    O  -0.550
Si33    30.223546417   37.486666523    8.940153346 XXXX 4      sc4     Si  1.100
Si34    33.551290776   32.171233534   22.026916196 XXXX 4      sc4     Si  1.100
Si35    36.965671028   29.460381206   11.400376717 XXXX 4      sc4     Si  1.100
Si36    27.822760929   31.633612453    8.186007030 XXXX 4      sc4     Si  1.100
Si37    28.324921823   31.339073022    3.130256338 XXXX 4      sc4     Si  1.100
Si38    33.520732485   34.050589655    7.494183153 XXXX 4      sc4     Si  1.100
Si39    34.464259684   30.395748687    6.283939892 XXXX 4      sc4     Si  1.100
Si40    27.616431787   36.243211721    8.071768651 XXXX 4      sc4     Si  1.100
O64     32.344184195   23.482242523    5.469938228 XXXX 4      oc23    O  -0.550
O65     34.045226379   29.884768991   18.847667812 XXXX 4      oc23    O  -0.550
O66     22.840096573   31.624786321    6.020638846 XXXX 4      oc23    O  -0.550
O67     28.125727033   35.480986080    6.765490833 XXXX 4      oc23    O  -0.550
O68     22.131161991   34.440174229   13.494442193 XXXX 4      oc23    O  -0.550
O69     39.519449821   31.064833200    9.742490467 XXXX 4      oc23    O  -0.550
O70     21.840210627   34.804194136   19.247821475 XXXX 4      oc23    O  -0.550
O71     38.355158970   37.943000262   19.599343016 XXXX 4      oc23    O  -0.550
O72     37.234447987   26.018416958   11.632135276 XXXX 4      oc23    O  -0.550
O73     34.936061731   33.328096425    7.788356140 XXXX 4      oc23    O  -0.550
O74     37.640257869   33.931471448   15.959386867 XXXX 4      oc23    O  -0.550
O75     37.221145266   35.352836769   11.006644532 XXXX 4      oc23    O  -0.550
O76     36.670889365   35.433961121    5.073633090 XXXX 4      oc23    O  -0.550
O77     33.672034115   35.519560277    6.884075513 XXXX 4      oc23    O  -0.550
O78     33.542702640   30.733956974   15.065309930 XXXX 4      oc23    O  -0.550
Si41    19.906954745   31.769177789   18.966817282 XXXX 4      sc4     Si  1.100
Si42    22.692101399   33.574245242   12.436030452 XXXX 4      sc4     Si  1.100
Si43    20.751749611   35.860544325   19.536025996 XXXX 4      sc4     Si  1.100
Si44    35.309902791   38.521018060    8.961518460 XXXX 4      sc4     Si  1.100
Si45    33.220508144   30.633982632   13.471873096 XXXX 4      sc4     Si  1.100
Si46    38.290574933   38.331051252    5.252792804 XXXX 4      sc4     Si  1.100
Si47    20.112882595   26.597637421   13.395006033 XXXX 4      sc4     Si  1.100
Si48    38.242196378   33.161871764   14.659608623 XXXX 4      sc4     Si  1.100
O79     28.810997381   31.030321394   16.892676538 XXXX 4      oc23    O  -0.550
O80     36.367800710   32.761142161   11.720522935 XXXX 4      oc23    O  -0.550
O81     25.827583475   25.714804441    7.368752216 XXXX 4      oc23    O  -0.550
O82     33.399626301   35.729080893   15.766227530 XXXX 4      oc23    O  -0.550
O83     20.898334253   23.398092986   10.533472332 XXXX 4      oc23    O  -0.550
O84     35.832904454   35.560991730   15.758177289 XXXX 4      oc23    O  -0.550
O85     22.818890555   33.312891474    2.771345911 XXXX 4      oc23    O  -0.550
O86     33.253565502   35.465035328    2.127488490 XXXX 4      oc23    O  -0.550
O87     24.397295877   27.782467840   14.819717087 XXXX 4      oc23    O  -0.550
O88     25.504499889   25.126552874    4.885737858 XXXX 4      oc23    O  -0.550
O89     32.644973229   34.417511270   13.670532938 XXXX 4      oc23    O  -0.550
O90     30.528607892   33.441579144    9.885790307 XXXX 4      oc23    O  -0.550
O91     38.097548512   34.047937370   13.363701418 XXXX 4      oc23    O  -0.550
O92     32.342451670   38.682644440   17.589958795 XXXX 4      oc23    O  -0.550
O93     37.348016122   29.651879128   15.306110059 XXXX 4      oc23    O  -0.550
O94     21.476087090   37.126995473   19.883369742 XXXX 4      oc23    O  -0.550
Si49    27.323019804   36.568864872   19.985733455 XXXX 4      sc4     Si  1.100
Si50    23.250299044   22.211148642   14.162237859 XXXX 4      sc4     Si  1.100
Si51    30.746711480   24.808893620   19.030960293 XXXX 4      sc4     Si  1.100
Si52    35.632460132   21.769775369   12.130709496 XXXX 4      sc4     Si  1.100
Si53    38.800961118   37.737290144   15.310737434 XXXX 4      sc4     Si  1.100
Si54    31.054394572   39.181110982   18.300791798 XXXX 4      sc4     Si  1.100
Si55    33.253363654   36.806229539   20.473093131 XXXX 4      sc4     Si  1.100
Si56    30.286640626   38.137646846    2.889503348 XXXX 4      sc4     Si  1.100
O95     22.507297867   38.606822188   15.514331409 XXXX 4      oc23    O  -0.550
O96     26.044920523   36.554116786   16.960053857 XXXX 4      oc23    O  -0.550
O97     36.976111838   22.427880312   12.629544388 XXXX 4      oc23    O  -0.550
O98     28.976329825   27.218743733    6.877267072 XXXX 4      oc23    O  -0.550
O99     35.418871683   23.065851105   21.870561979 XXXX 4      oc23    O  -0.550
O100    26.709508696   27.389527163    9.140348024 XXXX 4      oc23    O  -0.550
O101    39.465467591   26.572198701   10.011077364 XXXX 4      oc23    O  -0.550
O102    19.749445099   36.275402160   18.397512884 XXXX 4      oc23    O  -0.550
O103    37.791720496   39.203193599   21.722398716 XXXX 4      oc23    O  -0.550
O104    32.669122858   26.460454537   13.362804368 XXXX 4      oc23    O  -0.550
O105    31.962163500   31.350092104    9.008828750 XXXX 4      oc23    O  -0.550
O106    21.470846260   33.339283436   11.345842704 XXXX 4      oc23    O  -0.550
O107    33.216154002   37.616307435   21.830569690 XXXX 4      oc23    O  -0.550
O108    28.771932653   37.637728215    3.043874907 XXXX 4      oc23    O  -0.550
O109    20.552030979   33.753770839    3.913990383 XXXX 4      oc23    O  -0.550
O110    24.123114688   29.514945668   21.207960063 XXXX 4      oc24    O  -0.675
Si57    22.014006255   34.240512011    3.786082882 XXXX 4      sc4     Si  1.100
Si58    39.546783356   36.619080475    7.660198520 XXXX 4      sc4     Si  1.100
Si59    37.928063774   30.368072565   14.030954632 XXXX 4      sc4     Si  1.100
Si60    31.263184333   32.616212334    5.749408639 XXXX 4      sc4     Si  1.100
Si61    31.121963071   32.496597749    2.816484107 XXXX 4      sc4     Si  1.100
Si62    21.346231772   40.502583456    7.597255095 XXXX 4      sc4     Si  1.100
Si63    23.290815152   27.254747140   10.072953475 XXXX 4      sc4     Si  1.100
Si64    38.689248059   26.791414728    6.494618875 XXXX 4      sc4     Si  1.100
O111    22.645094928   29.735406341    7.571822294 XXXX 4      oc23    O  -0.550
O112    35.583718732   31.427902335    2.460524450 XXXX 4      oc23    O  -0.550
O113    29.749567299   31.716517342    2.408446246 XXXX 4      oc23    O  -0.550
O114    28.267998384   21.593771334   20.487706266 XXXX 4      oc23    O  -0.550
O115    26.395135797   20.201739196   19.199638231 XXXX 4      oc23    O  -0.550
O116    35.832541609   23.618427714    2.833127743 XXXX 4      oc23    O  -0.550
O117    28.700252710   27.433526937    4.248537610 XXXX 4      oc23    O  -0.550
O118    22.075406386   37.625548449    1.725257891 XXXX 4      oc23    O  -0.550
O119    34.155528907   31.012587636    7.714860055 XXXX 4      oc23    O  -0.550
O120    37.552129746   20.380559740    8.358757756 XXXX 4      oc23    O  -0.550
O121    35.352394123   34.418629971    0.756272628 XXXX 4      oc24    O  -0.675
O122    27.635218035   26.550651975   18.681940644 XXXX 4      oc23    O  -0.550
O123    37.061135352   26.538057327   14.207777089 XXXX 4      oc23    O  -0.550
O124    31.595339048   32.243697213    4.301018255 XXXX 4      oc23    O  -0.550
O125    21.362720802   35.805150099   15.135424837 XXXX 4      oc23    O  -0.550
O126    35.116148277   39.156087145   21.426001833 XXXX 4      oc23    O  -0.550
Si65    37.104917067   36.088502519    9.518947488 XXXX 4      sc4     Si  1.100
Si66    20.246404811   40.854426067   12.980026758 XXXX 4      sc4     Si  1.100
Si67    31.097570744   24.901328460   16.111114412 XXXX 4      sc4     Si  1.100
Si68    21.856255112   20.536592614   20.004666506 XXXX 4      sc4     Si  1.100
Si69    33.333872029   36.491430011    5.603795111 XXXX 4      sc4     Si  1.100
Si70    20.686764281   21.946522736   15.218194143 XXXX 4      sc4     Si  1.100
Si71    36.940795709   40.173986614    7.133275468 XXXX 4      sc4     Si  1.100
Si72    31.242422861   40.541737995   20.955520786 XXXX 4      sc4     Si  1.100
O127    37.233964994   29.590518496   12.909202652 XXXX 4      oc23    O  -0.550
O128    25.755985233   22.374723488   20.278305734 XXXX 4      oc23    O  -0.550
O129    35.983843239   37.199170216    9.701932157 XXXX 4      oc23    O  -0.550
O130    21.572721649   40.020897430   13.024196842 XXXX 4      oc23    O  -0.550
O131    20.828228241   27.998411727   13.609034645 XXXX 4      oc23    O  -0.550
O132    23.962580932   39.286639317   13.530680236 XXXX 4      oc23    O  -0.550
O133    26.387636196   38.224653640    2.163349420 XXXX 4      oc23    O  -0.550
O134    28.708840847   37.472207372    8.338275445 XXXX 4      oc23    O  -0.550
O135    38.995559068   37.655669415   11.698921948 XXXX 4      oc23    O  -0.550
O136    24.799878600   33.268849718    6.461303459 XXXX 4      oc23    O  -0.550
O137    35.386297318   40.910440148   12.405057218 XXXX 4      oc23    O  -0.550
O138    36.271853394   38.941177994    7.811269987 XXXX 4      oc23    O  -0.550
O139    21.844161074   39.232487269    3.482132478 XXXX 4      oc23    O  -0.550
O140    33.156125955   29.116702891   12.881841544 XXXX 4      oc23    O  -0.550
O141    38.457599053   32.751943129   19.187031675 XXXX 4      oc23    O  -0.550
O142    20.232253849   38.031207251   21.821174225 XXXX 4      oc23    O  -0.550
Si73    22.966522883   36.568368495    2.450231230 XXXX 4      sc4     Si  1.100
Si74    25.232899467   29.074192249   14.439181752 XXXX 4      sc4     Si  1.100
Si75    37.244285656   24.435259798    2.539138475 XXXX 4      sc4     Si  1.100
Si76    38.761571992   38.004649830   21.177693916 XXXX 4      sc4     Si  1.100
Si77    24.495422667   24.666574095   17.821481658 XXXX 4      sc4     Si  1.100
Si78    38.603176860   25.288552154   20.824874993 XXXX 4      sc4     Si  1.100
Si79    19.659583248   22.523547779   11.244777429 XXXX 4      sc4     Si  1.100
Si80    24.302112698   21.861380444   16.940128773 XXXX 4      sc4     Si  1.100
O143    37.808733369   30.089980262    2.791318838 XXXX 4      oc23    O  -0.550
O144    22.224369947   34.040437381   21.642108789 XXXX 4      oc24    O  -0.675
O145    20.699221165   22.409608194    2.868539796 XXXX 4      oc23    O  -0.550
O146    28.467878013   21.597250914    7.361525855 XXXX 4      oc23    O  -0.550
O147    36.660568703   32.842308495    4.331589751 XXXX 4      oc23    O  -0.550
O148    28.406316885   24.574969020   17.207535080 XXXX 4      oc23    O  -0.550
O149    32.705284824   40.262734432   21.762248884 XXXX 4      oc23    O  -0.550
O150    32.339428761   27.882153246   19.026781091 XXXX 4      oc23    O  -0.550
O151    34.326020481   35.572966524   20.472409261 XXXX 4      oc23    O  -0.550
O152    30.925507642   20.740024583   15.948504056 XXXX 4      oc23    O  -0.550
O153    39.789156721   32.847902001   15.074516838 XXXX 4      oc23    O  -0.550
O154    39.043050935   20.850109217   17.505938543 XXXX 4      oc23    O  -0.550
O155    21.617349202   30.464070949   21.706982104 XXXX 4      oc24    O  -0.675
O156    22.631912354   20.476392665    7.597646983 XXXX 4      oc23    O  -0.550
O157    30.360858082   27.073606464   12.545310955 XXXX 4      oc23    O  -0.550
O158    26.794573061   25.046300270    9.737178871 XXXX 4      oc23    O  -0.550
Si81    23.157696631   40.205433722   12.663563374 XXXX 4      sc4     Si  1.100
Si82    26.267498401   30.162651383    5.905668578 XXXX 4      sc4     Si  1.100
Si83    25.558763264   20.681149541    4.589742010 XXXX 4      sc4     Si  1.100
Si84    20.547395692   29.562592950   13.215491720 XXXX 4      sc4     Si  1.100
Si85    23.273480285   30.093501825    6.229999670 XXXX 4      sc4     Si  1.100
Si86    26.509910212   24.937331867    6.119149867 XXXX 4      sc4     Si  1.100
Si87    32.669243005   22.057560612    4.643120410 XXXX 4      sc4     Si  1.100
Si88    22.573575982   23.646103836   10.283677421 XXXX 4      sc4     Si  1.100
O159    21.860448257   27.750190967   17.499706325 XXXX 4      oc23    O  -0.550
O160    37.633846803   30.087784842    8.120950963 XXXX 4      oc23    O  -0.550
O161    30.748285411   24.487712804   12.400052026 XXXX 4      oc23    O  -0.550
O162    20.258539699   28.823487132    9.013125448 XXXX 4      oc23    O  -0.550
O163    22.874283316   22.879405860    6.513915936 XXXX 4      oc23    O  -0.550
O164    34.401730168   33.254928927   21.368846674 XXXX 4      oc23    O  -0.550
O165    29.868979404   22.325708081   17.595718917 XXXX 4      oc23    O  -0.550
O166    38.431837045   22.691510995    7.530652582 XXXX 4      oc23    O  -0.550
O167    26.891813163   39.584865770   13.829390455 XXXX 4      oc23    O  -0.550
O168    38.632403918   27.335706033    4.977737994 XXXX 4      oc23    O  -0.550
O169    31.357761969   40.332256891   19.372353250 XXXX 4      oc23    O  -0.550
O170    35.895554118   28.149223996    8.840835033 XXXX 4      oc23    O  -0.550
O171    19.942471520   32.949782827    6.359997366 XXXX 4      oc23    O  -0.550
O172    24.010233796   23.485556644   13.718551546 XXXX 4      oc23    O  -0.550
O173    33.470700702   24.687083616   12.154058148 XXXX 4      oc23    O  -0.550
O174    21.964822712   26.897231999    9.191270263 XXXX 4      oc23    O  -0.550
Si89    26.076084357   30.234660666   11.698426284 XXXX 4      sc4     Si  1.100
Si90    33.781488402   27.715471720   13.336623145 XXXX 4      sc4     Si  1.100
Si91    27.338057453   25.728601755   17.398144682 XXXX 4      sc4     Si  1.100
Si92    38.085170926   28.699274266   18.640344217 XXXX 4      sc4     Si  1.100
Si93    30.318972293   31.038732644   12.643236551 XXXX 4      sc4     Si  1.100
Si94    21.711001703   35.959856831   13.702616404 XXXX 4      sc4     Si  1.100
Si95    30.022294704   21.534855545    7.132909612 XXXX 4      sc4     Si  1.100
Si96    27.868277573   32.402258895   12.480555135 XXXX 4      sc4     Si  1.100
O175    26.798242362   28.849671653    5.165538947 XXXX 4      oc23    O  -0.550
O176    24.152786292   31.278001325    8.878324374 XXXX 4      oc23    O  -0.550
O177    28.362535170   27.500565039   14.053901546 XXXX 4      oc23    O  -0.550
O178    26.383926044   34.989562662   11.396741022 XXXX 4      oc23    O  -0.550
O179    26.618600362   29.045189984   15.227661372 XXXX 4      oc23    O  -0.550
O180    33.816641131   38.233726725    8.431120567 XXXX 4      oc23    O  -0.550
O181    32.664970563   37.768529811    6.189231487 XXXX 4      oc23    O  -0.550
O182    24.920338390   33.669870726    9.849599403 XXXX 4      oc23    O  -0.550
O183    37.389620766   36.062609404   17.736398313 XXXX 4      oc23    O  -0.550
O184    37.550476517   29.894007536   17.811967290 XXXX 4      oc23    O  -0.550
O185    36.889716241   27.710707980   18.461844451 XXXX 4      oc23    O  -0.550
O186    23.807571553   34.612407278   11.888091696 XXXX 4      oc23    O  -0.550
O187    35.510025118   28.967006853   11.035163012 XXXX 4      oc23    O  -0.550
O188    32.995955043   24.521854179   22.344914065 XXXX 4      oc23    O  -0.550
O189    21.794895831   22.579438382   14.391163144 XXXX 4      oc23    O  -0.550
O190    31.240164090   39.097418310   14.851658432 XXXX 4      oc23    O  -0.550
Si97    36.693222365   28.783216362    7.620737954 XXXX 4      sc4     Si  1.100
Si98    27.065608790   34.064468463   14.779866918 XXXX 4      sc4     Si  1.100
Si99    24.402656854   22.102555610   21.095680244 XXXX 4      sc4     Si  1.100
Si100   38.420427848   37.188978429   18.179919990 XXXX 4      sc4     Si  1.100
Si101   37.378089018   24.787349363   18.160466297 XXXX 4      sc4     Si  1.100
Si102   21.816303696   38.146677950   21.098466378 XXXX 4      sc4     Si  1.100
Si103   35.823230185   27.070334325   19.334698218 XXXX 4      sc4     Si  1.100
Si104   34.081349898   31.680721376   16.162485528 XXXX 4      sc4     Si  1.100
O191    33.129638257   31.475673094   17.418093688 XXXX 4      oc23    O  -0.550
O192    20.369082522   29.625403202    4.128728192 XXXX 4      oc23    O  -0.550
O193    36.166873395   20.438688981   22.227772582 XXXX 4      oc23    O  -0.550
O194    26.398158706   20.400406189   15.237694271 XXXX 4      oc23    O  -0.550
O195    23.878967948   23.232364703   17.572442029 XXXX 4      oc23    O  -0.550
O196    35.041808270   27.103023611   12.568140373 XXXX 4      oc23    O  -0.550
O197    30.051322317   37.019439647   13.801037314 XXXX 4      oc23    O  -0.550
O198    31.789050310   31.235574648   13.268703374 XXXX 4      oc23    O  -0.550
O199    34.419105886   26.734114017   18.733689577 XXXX 4      oc23    O  -0.550
O200    31.547162341   26.876845955    2.834851488 XXXX 4      oc23    O  -0.550
O201    38.208735325   36.285635929   15.298154096 XXXX 4      oc23    O  -0.550
O202    24.295218640   39.952286232   20.184557932 XXXX 4      oc23    O  -0.550
O203    35.673540933   31.251858787   16.470898672 XXXX 4      oc23    O  -0.550
O204    32.388814151   21.863244946   17.869759884 XXXX 4      oc23    O  -0.550
O205    22.397360586   25.367770022    6.022226672 XXXX 4      oc23    O  -0.550
O206    35.623470703   28.610691907   16.734291820 XXXX 4      oc23    O  -0.550
Si105   39.346740327   30.489010822    3.241921237 XXXX 4      sc4     Si  1.100
Si106   37.307579310   33.964990499    5.189429348 XXXX 4      sc4     Si  1.100
Si107   25.903898705   26.026786225    8.926980241 XXXX 4      sc4     Si  1.100
Si108   20.118849115   33.871271499   10.661143434 XXXX 4      sc4     Si  1.100
Si109   39.983675373   32.936481890    4.943837208 XXXX 4      sc4     Si  1.100
Si110   29.844788925   23.747945149   11.169586269 XXXX 4      sc4     Si  1.100
Si111   30.596056243   31.887174826    9.695652448 XXXX 4      sc4     Si  1.100
Si112   20.289542536   30.156146617    9.968394274 XXXX 4      sc4     Si  1.100
O207    30.772754632   35.937981656    8.882998713 XXXX 4      oc23    O  -0.550
O208    20.080590576   33.444688294    9.111995235 XXXX 4      oc23    O  -0.550
O209    29.652649191   29.545812434   13.045656410 XXXX 4      oc23    O  -0.550
O210    38.657317684   37.175803439    6.364714205 XXXX 4      oc23    O  -0.550
O211    27.649650142   23.878746745    3.398513261 XXXX 4      oc23    O  -0.550
O212    27.776883843   32.571301300   18.731091999 XXXX 4      oc23    O  -0.550
O213    26.465525357   33.227126859   20.765358654 XXXX 4      oc23    O  -0.550
O214    27.490486066   35.068158206   19.416192656 XXXX 4      oc23    O  -0.550
O215    21.954542900   30.315701054   13.311740711 XXXX 4      oc23    O  -0.550
O216    35.016733506   26.572695079    2.023661353 XXXX 4      oc24    O  -0.675
O217    35.537276953   28.336950932   20.377175521 XXXX 4      oc23    O  -0.550
O218    34.231481292   21.901777161    8.004172170 XXXX 4      oc23    O  -0.550
O219    32.779141838   34.142817054    8.870368588 XXXX 4      oc23    O  -0.550
O220    20.045395796   35.349191729    7.298575482 XXXX 4      oc23    O  -0.550
O221    39.503323636   30.351953885   14.051068272 XXXX 4      oc23    O  -0.550
O222    37.284076075   33.497306758    6.677882070 XXXX 4      oc23    O  -0.550
Si113   22.942454954   31.182832706   14.150669771 XXXX 4      sc4     Si  1.100
Si114   33.159953851   34.836552504   12.215296825 XXXX 4      sc4     Si  1.100
Si115   37.966967504   25.654977392   15.153343341 XXXX 4      sc4     Si  1.100
Si116   24.626445818   37.153886282    8.764510774 XXXX 4      sc4     Si  1.100
Si117   36.299266226   26.149507490   12.836726566 XXXX 4      sc4     Si  1.100
Si118   24.926506758   34.879643487   10.823187768 XXXX 4      sc4     Si  1.100
Si119   20.795089184   29.561101349   20.698430916 XXXX 4      sc4     Si  1.100
Si120   27.271861038   38.792894533   12.437635997 XXXX 4      sc4     Si  1.100
O223    26.636418223   29.515029632   10.391093113 XXXX 4      oc23    O  -0.550
O224    31.091039531   39.092323651   12.409377134 XXXX 4      oc23    O  -0.550
O225    21.098497431   32.441741882   19.840308484 XXXX 4      oc23    O  -0.550
O226    25.143401663   31.389288625   11.224026003 XXXX 4      oc23    O  -0.550
O227    37.822439785   39.634750455    6.003523817 XXXX 4      oc23    O  -0.550
O228    33.830832942   37.965082879   19.440202664 XXXX 4      oc23    O  -0.550
O229    26.639361834   31.742951286    9.293539697 XXXX 4      oc23    O  -0.550
O230    23.622768020   28.812465580    9.739917163 XXXX 4      oc23    O  -0.550
O231    24.237165816   30.393926167   14.748279469 XXXX 4      oc23    O  -0.550
O232    34.653575954   36.946561085    4.906465012 XXXX 4      oc23    O  -0.550
O233    38.926541591   33.362445241   11.163188361 XXXX 4      oc23    O  -0.550
O234    23.697713570   21.565680330   15.515771615 XXXX 4      oc23    O  -0.550
O235    21.477214072   34.000912411   16.834152936 XXXX 4      oc23    O  -0.550
O236    24.707679883   24.969317335   19.427855022 XXXX 4      oc23    O  -0.550
O237    30.300911735   24.649504643    3.597716259 XXXX 4      oc23    O  -0.550
O238    33.363382635   20.993628938    5.582925837 XXXX 4      oc23    O  -0.550
Si121   25.021812487   29.683657154   19.806383777 XXXX 4      sc4     Si  1.100
Si122   24.255791067   26.245051479   15.093048855 XXXX 4      sc4     Si  1.100
Si123   24.375928862   32.796360255    2.769080418 XXXX 4      sc4     Si  1.100
Si124   38.355562666   38.887732234   12.505249012 XXXX 4      sc4     Si  1.100
Si125   36.535874918   30.393676744    1.810576932 XXXX 4      sc4     Si  1.100
Si126   23.718515892   21.483106358    6.836595399 XXXX 4      sc4     Si  1.100
Si127   23.539678880   38.097914435   14.428298238 XXXX 4      sc4     Si  1.100
Si128   20.021892560   23.597463798    3.642996575 XXXX 4      sc4     Si  1.100
O239    39.545574674   38.755397055    4.465943354 XXXX 4      oc23    O  -0.550
O240    39.185158885   40.194454152   12.249410088 XXXX 4      oc23    O  -0.550
O241    24.592256672   31.953178191   22.142523898 XXXX 4      oc24    O  -0.675
O242    24.806892805   20.885658229   22.067191320 XXXX 4      oc23    O  -0.550
O243    23.362857941   32.263253491   13.129629523 XXXX 4      oc23    O  -0.550
O244    20.609720958   24.009091476    7.251973511 XXXX 4      oc23    O  -0.550
O245    37.692949716   25.680539589   16.797064981 XXXX 4      oc23    O  -0.550
O246    28.811965769   35.616842821   11.870409591 XXXX 4      oc23    O  -0.550
O247    21.351311605   27.229142961    4.310249085 XXXX 4      oc23    O  -0.550
O248    19.805079355   21.057184990   14.232069931 XXXX 4      oc23    O  -0.550
O249    34.752267437   37.441298624   17.074670230 XXXX 4      oc23    O  -0.550
O250    34.287760740   23.689194819   17.511108370 XXXX 4      oc23    O  -0.550
O251    20.432376176   21.036386534   20.566604533 XXXX 4      oc23    O  -0.550
O252    31.400940544   21.364321539    3.946782343 XXXX 4      oc23    O  -0.550
O253    21.832067036   39.380481794    8.647368588 XXXX 4      oc23    O  -0.550
Si129   21.635491461   37.889095168    8.867559236 XXXX 4      sc4     Si  1.100
Si130   30.977192654   40.745665106    4.477391835 XXXX 4      sc4     Si  1.100
Si131   25.003307383   36.014381780   15.851853327 XXXX 4      sc4     Si  1.100
Si132   38.416237106   26.992938977   11.182547072 XXXX 4      sc4     Si  1.100
Si133   22.214935972   39.125094432    1.906472028 XXXX 4      sc4     Si  1.100
Si134   31.605417013   25.284161314    2.670776301 XXXX 4      sc4     Si  1.100
Si135   26.966153170   21.608065025   19.579724688 XXXX 4      sc4     Si  1.100
Si136   38.641917190   21.535766805    8.588868379 XXXX 4      sc4     Si  1.100
O254    22.841346106   29.194802057    4.975919971 XXXX 4      oc23    O  -0.550
O255    23.933231323   23.523093635   21.604524114 XXXX 4      oc23    O  -0.550
O256    30.267207984   23.379240527   19.687588906 XXXX 4      oc23    O  -0.550
O257    22.676660055   24.358363297    8.806816224 XXXX 4      oc23    O  -0.550
O258    27.655897807   37.344223521   13.063881671 XXXX 4      oc23    O  -0.550
O259    23.199181128   21.485840138   20.124193089 XXXX 4      oc23    O  -0.550
O260    19.575809267   23.078942131    5.052928451 XXXX 4      oc23    O  -0.550
O261    23.350845603   21.080885154   13.030429059 XXXX 4      oc23    O  -0.550
O262    38.620913020   27.417783627    2.200295253 XXXX 4      oc24    O  -0.675
O263    34.371332874   31.444556905   12.702398291 XXXX 4      oc23    O  -0.550
O264    33.978061575   33.670863481   11.441950278 XXXX 4      oc23    O  -0.550
O265    30.035155282   26.137577147   19.662327952 XXXX 4      oc23    O  -0.550
O266    34.381047993   28.086287798   14.660694231 XXXX 4      oc23    O  -0.550
O267    37.488754391   31.855189358   14.296802533 XXXX 4      oc23    O  -0.550
O268    20.583677806   36.372437750   12.772230364 XXXX 4      oc23    O  -0.550
O269    30.795291883   21.257220108   21.356807195 XXXX 4      oc23    O  -0.550
Si137   39.275142084   23.819663027    6.588221698 XXXX 4      sc4     Si  1.100
Si138   28.733956461   36.263511330   13.336269249 XXXX 4      sc4     Si  1.100
Si139   37.129549689   32.777465813   20.081793185 XXXX 4      sc4     Si  1.100
Si140   34.327390161   23.951625306   13.324913640 XXXX 4      sc4     Si  1.100
Si141   22.122734852   25.818799192    4.425502188 XXXX 4      sc4     Si  1.100
Si142   31.245849465   21.168388325   10.079775987 XXXX 4      sc4     Si  1.100
Si143   21.214807329   38.199753279   16.358997373 XXXX 4      sc4     Si  1.100
Si144   20.149287259   36.762395224   11.354955335 XXXX 4      sc4     Si  1.100
O270    23.135361228   25.730093356   14.085205457 XXXX 4      oc23    O  -0.550
O271    23.047033661   27.033543135   11.653689123 XXXX 4      oc23    O  -0.550
O272    23.554473831   39.785478760   11.195720001 XXXX 4      oc23    O  -0.550
O273    24.860029198   38.609516455    9.173989193 XXXX 4      oc23    O  -0.550
O274    34.332712691   38.699049586   12.305927111 XXXX 4      oc23    O  -0.550
O275    35.322157827   39.598747048   10.156643401 XXXX 4      oc23    O  -0.550
O276    33.697269876   22.286928912    3.534186761 XXXX 4      oc23    O  -0.550
O277    26.015369067   38.705015992   11.445397064 XXXX 4      oc23    O  -0.550
O278    20.666687650   39.448431156   17.223659483 XXXX 4      oc23    O  -0.550
O279    37.190868119   30.732465372   10.574101351 XXXX 4      oc23    O  -0.550
O280    20.041726494   29.688670318   11.587280267 XXXX 4      oc23    O  -0.550
O281    37.456785569   25.636539815    3.548374940 XXXX 4      oc23    O  -0.550
O282    33.851837112   23.995916486   14.848683740 XXXX 4      oc23    O  -0.550
O283    36.355103532   25.535777690   19.260923343 XXXX 4      oc23    O  -0.550
O284    22.290806657   31.912408574   15.422921568 XXXX 4      oc23    O  -0.550
O285    20.307199399   37.607026908    8.084061238 XXXX 4      oc23    O  -0.550
Si145   25.073898791   32.351213526   20.696755014 XXXX 4      sc4     Si  1.100
Si146   35.482931878   39.558804726   11.683104654 XXXX 4      sc4     Si  1.100
Si147   36.402513699   39.950295784   21.118461819 XXXX 4      sc4     Si  1.100
Si148   27.365189141   28.304012223    3.727700697 XXXX 4      sc4     Si  1.100
Si149   34.092677395   22.389432062    9.567744947 XXXX 4      sc4     Si  1.100
Si150   27.541445387   39.987998233   15.182971351 XXXX 4      sc4     Si  1.100
Si151   26.623074652   21.951123486   15.397779517 XXXX 4      sc4     Si  1.100
O286    25.407745182   38.969434458   17.934704963 XXXX 4      oc23    O  -0.550
O287    31.211782869   23.347462501   15.891372817 XXXX 4      oc23    O  -0.550
O288    35.647901477   24.704733410   13.215963815 XXXX 4      oc23    O  -0.550
O289    33.100973489   40.354714877    7.212730171 XXXX 4      oc23    O  -0.550
O290    26.066085690   24.737133760   17.486178798 XXXX 4      oc23    O  -0.550
O291    25.639435039   22.207753026   16.575646781 XXXX 4      oc23    O  -0.550
O292    38.189223386   28.923337997   20.235409111 XXXX 4      oc23    O  -0.550
O293    25.753928309   24.286023095   12.013756569 XXXX 4      oc23    O  -0.550
O294    26.181345501   27.245427101    3.140762036 XXXX 4      oc23    O  -0.550
O295    21.347603856   39.842821452    6.127418159 XXXX 4      oc23    O  -0.550
O296    40.354289273   28.588900696   21.277650014 XXXX 4      oc23    O  -0.550
O297    19.971861978   30.298466142   19.551843642 XXXX 4      oc23    O  -0.550
O298    29.314407808   33.547687821   16.957504122 XXXX 4      oc23    O  -0.550
O299    31.138733246   36.819446511    2.489774642 XXXX 4      oc23    O  -0.550
O300    33.626678468   28.286819293    3.483666260 XXXX 4      oc23    O  -0.550
O301    28.738875296   31.435649278    4.643002210 XXXX 4      oc24    O  -0.675
Si152   36.683910941   21.942047931   22.097999215 XXXX 4      sc4     Si  1.100
Si153   33.028608706   26.580898887   19.485411216 XXXX 4      sc4     Si  1.100
Si154   22.198124947   24.200505433    7.191010897 XXXX 4      sc4     Si  1.100
Si155   29.086951946   26.436714860    5.501100721 XXXX 4      sc4     Si  1.100
Si156   26.761354705   23.961236752   10.886197329 XXXX 4      sc4     Si  1.100
Si157   31.056208798   25.876761739   13.258599414 XXXX 4      sc4     Si  1.100
Si158   35.277568721   32.314545813    3.809974690 XXXX 4      sc4     Si  1.100
Si159   25.184523315   25.843408147    3.498846472 XXXX 4      sc4     Si  1.100
O302    34.615561314   39.939815061   17.719825737 XXXX 4      oc23    O  -0.550
O303    25.471603529   31.153746477   19.862382268 XXXX 4      oc23    O  -0.550
O304    22.105803680   35.737534125    3.416219287 XXXX 4      oc23    O  -0.550
O305    27.272747726   30.959015929   12.277409334 XXXX 4      oc23    O  -0.550
O306    37.516652619   24.256025606   14.489537618 XXXX 4      oc23    O  -0.550
O307    30.903455787   39.134044041    4.125470666 XXXX 4      oc23    O  -0.550
O308    37.875734772   21.873355238   15.197631625 XXXX 4      oc23    O  -0.550
O309    30.437699558   40.517583435   10.167620842 XXXX 4      oc23    O  -0.550
O310    23.196881507   37.396345608   21.738900232 XXXX 4      oc23    O  -0.550
O311    39.388789516   31.595576615    4.460465363 XXXX 4      oc23    O  -0.550
O312    33.590920197   29.196913513    9.531554043 XXXX 4      oc23    O  -0.550
O313    22.275648860   28.924041816    2.385664671 XXXX 4      oc24    O  -0.675
O314    27.239003125   30.525720517    7.138320500 XXXX 4      oc23    O  -0.550
O315    30.930871023   21.231075100    8.452981346 XXXX 4      oc23    O  -0.550
O316    30.305950717   22.161431886   10.931406584 XXXX 4      oc23    O  -0.550
O317    31.725674956   24.919682073    7.757307097 XXXX 4      oc23    O  -0.550
Si160   32.460008699   32.202969578   18.712961017 XXXX 4      sc4     Si  1.100
Si161   32.516650992   26.082264416   22.279756507 XXXX 4      sc4     Si  1.100
Si162   25.493333389   24.072109169   13.550534260 XXXX 4      sc4     Si  1.100
Si163   27.820382010   34.793629448   10.879233047 XXXX 4      sc4     Si  1.100
Si164   32.673878292   38.771723176    7.478986758 XXXX 4      sc4     Si  1.100
Si165   37.933910146   31.138706986    9.283813203 XXXX 4      sc4     Si  1.100
Si166   29.100579065   27.994929677   12.714603109 XXXX 4      sc4     Si  1.100
Si167   32.050815466   28.283463190    3.336352909 XXXX 4      sc4     Si  1.100
O318    25.361221703   40.974371570   10.035889089 XXXX 4      oc23    O  -0.550
O319    24.694132061   37.367466821   15.090239503 XXXX 4      oc23    O  -0.550
O320    31.390055189   34.277303201   16.042180094 XXXX 4      oc23    O  -0.550
O321    28.073599879   33.240054895   11.153249741 XXXX 4      oc23    O  -0.550
O322    30.171782108   24.411562103    9.778421754 XXXX 4      oc23    O  -0.550
O323    36.440610039   40.272637283   19.516148754 XXXX 4      oc23    O  -0.550
O324    37.879202226   28.389073020   10.803687992 XXXX 4      oc23    O  -0.550
O325    37.788615887   21.803499392   20.900041528 XXXX 4      oc23    O  -0.550
O326    30.244108444   26.750976029    9.024858522 XXXX 4      oc23    O  -0.550
O327    20.297724574   31.815042065   17.358082740 XXXX 4      oc23    O  -0.550
O328    25.513772866   25.347095043   14.521856780 XXXX 4      oc23    O  -0.550
O329    27.943907962   35.248264145    9.309805517 XXXX 4      oc23    O  -0.550
O330    38.568021728   26.731130814   21.542199126 XXXX 4      oc23    O  -0.550
O331    33.956896408   24.061583994    9.687980025 XXXX 4      oc23    O  -0.550
O332    27.445334670   22.498644949   18.362643986 XXXX 4      oc23    O  -0.550
O333    25.510507259   29.242861753   12.883045351 XXXX 4      oc23    O  -0.550
Si168   25.162267209   40.261077372   18.799248170 XXXX 4      sc4     Si  1.100
Si169   29.503606333   29.715020298   17.499375648 XXXX 4      sc4     Si  1.100
Si170   33.723716723   22.562699848   18.554387742 XXXX 4      sc4     Si  1.100
Si171   28.429498126   33.987404034    6.310734825 XXXX 4      sc4     Si  1.100
Si172   27.536283854   37.014838896    2.184289051 XXXX 4      sc4     Si  1.100
Si173   36.058346646   36.508830382    4.240180613 XXXX 4      sc4     Si  1.100
Si174   38.837887222   28.268258239   21.502019688 XXXX 4      sc4     Si  1.100
Si175   36.522812492   33.545823319    7.999736341 XXXX 4      sc4     Si  1.100
O334    21.170903064   20.790820528   16.092063161 XXXX 4      oc23    O  -0.550
O335    32.243640039   31.837705023    1.824859390 XXXX 4      oc24    O  -0.675
O336    30.160656458   39.449092992   21.533276460 XXXX 4      oc24    O  -0.675
O337    25.102924002   33.364806120    3.995697299 XXXX 4      oc23    O  -0.550
O338    33.350281761   33.479531018   19.190878793 XXXX 4      oc23    O  -0.550
O339    28.578663534   29.202756442   18.774578214 XXXX 4      oc23    O  -0.550
O340    24.796250148   29.903660963    6.445512153 XXXX 4      oc23    O  -0.550
O341    30.648546243   25.677183486   14.821369771 XXXX 4      oc23    O  -0.550
O342    28.499606541   27.620676001   20.868478000 XXXX 4      oc23    O  -0.550
O343    38.355038823   36.569983573   21.763712308 XXXX 4      oc23    O  -0.550
O344    35.931475790   33.700073186   19.505454500 XXXX 4      oc23    O  -0.550
O345    23.568343648   26.060223782    3.603547442 XXXX 4      oc23    O  -0.550
O346    31.122083218   34.147995677    2.599480804 XXXX 4      oc23    O  -0.550
O347    26.061005858   31.428233253    5.069878844 XXXX 4      oc23    O  -0.550
O348    27.761966341   29.733707299    2.926236704 XXXX 4      oc23    O  -0.550
O349    24.524892423   26.189242370    9.706039946 XXXX 4      oc23    O  -0.550
Si176   25.826211392   32.947668901    5.306430117 XXXX 4      sc4     Si  1.100
Si177   30.223789114   32.528956117   21.754316843 XXXX 4      sc4     Si  1.100
Si178   23.052473935   30.143263033    9.010858899 XXXX 4      sc4     Si  1.100
Si179   25.137110745   32.078260334    9.769639450 XXXX 4      sc4     Si  1.100
Si180   22.302903098   33.517028496   20.065763061 XXXX 4      sc4     Si  1.100
Si181   22.760152891   28.318513355   18.733878134 XXXX 4      sc4     Si  1.100
Si182   27.742615399   33.617459703   19.932426819 XXXX 4      sc4     Si  1.100
Si183   33.982295570   37.407490637   13.139001771 XXXX 4      sc4     Si  1.100
O350    34.108683433   30.668328978   21.398521822 XXXX 4      oc23    O  -0.550
O351    28.011877753   22.355001751   15.983915405 XXXX 4      oc23    O  -0.550
O352    27.965515272   33.096574686    7.578078433 XXXX 4      oc23    O  -0.550
O353    23.841073456   33.055434638   19.854426306 XXXX 4      oc23    O  -0.550
O354    30.507968970   31.048966413   11.099046054 XXXX 4      oc23    O  -0.550
O355    26.116398618   28.586994212   19.873854670 XXXX 4      oc23    O  -0.550
O356    38.503879834   38.057890619   16.816636170 XXXX 4      oc23    O  -0.550
O357    39.415921204   26.045142308   14.714425822 XXXX 4      oc23    O  -0.550
O358    27.962814358   25.298247564    5.566164001 XXXX 4      oc23    O  -0.550
O359    27.249888480   33.587212791    5.302015923 XXXX 4      oc23    O  -0.550
O360    34.653133811   21.334366032   18.963253000 XXXX 4      oc23    O  -0.550
O361    38.707592165   22.304040347   10.098591542 XXXX 4      oc23    O  -0.550
O362    31.219806313   38.583620870    8.163301089 XXXX 4      oc23    O  -0.550
O363    30.231973556   39.744919053   17.123986923 XXXX 4      oc23    O  -0.550
O364    30.093573355   31.056547897   21.209918800 XXXX 4      oc23    O  -0.550
O365    31.181104430   29.825230879   17.885481844 XXXX 4      oc23    O  -0.550
Si184   28.215549235   32.469793374   17.203120183 XXXX 4      sc4     Si  1.100
Si185   33.458041971   30.776052733    9.118203883 XXXX 4      sc4     Si  1.100
Si186   27.675652444   28.064039723   19.527787199 XXXX 4      sc4     Si  1.100
Si187   28.563707585   21.470054845    1.812535669 XXXX 4      sc4     Si  1.100
Si188   30.069505426   27.196992035   20.843760201 XXXX 4      sc4     Si  1.100
Si189   32.859568513   34.328348570   15.281581520 XXXX 4      sc4     Si  1.100
Si190   32.685933883   29.062797796   18.142784192 XXXX 4      sc4     Si  1.100
Si191   26.536760754   38.016044283   17.515877163 XXXX 4      sc4     Si  1.100
O366    32.032026814   35.229866081   11.135520145 XXXX 4      oc23    O  -0.550
O367    29.999678156   33.666514623    5.832011902 XXXX 4      oc23    O  -0.550
O368    23.552498608   22.343068939   10.139433039 XXXX 4      oc23    O  -0.550
O369    24.093644932   37.512685584    3.132050440 XXXX 4      oc23    O  -0.550
O370    21.253629360   37.558055952   10.508494916 XXXX 4      oc23    O  -0.550
O371    21.727892025   30.770293769    9.714751190 XXXX 4      oc23    O  -0.550
O372    38.814345539   33.971742218    4.809413248 XXXX 4      oc23    O  -0.550
O373    32.147046330   25.763817379   10.231739931 XXXX 4      oc23    O  -0.550
O374    33.178016812   28.258977712   16.874003104 XXXX 4      oc23    O  -0.550
O375    24.856842888   21.794757224    7.982599326 XXXX 4      oc23    O  -0.550
O376    27.455210787   38.862086073   16.419835015 XXXX 4      oc23    O  -0.550
O377    38.479650908   36.613862340    8.965177724 XXXX 4      oc23    O  -0.550
O378    23.020949658   37.179781867    8.302688907 XXXX 4      oc23    O  -0.550
O379    29.278286692   32.118326133   13.030358702 XXXX 4      oc23    O  -0.550
O380    33.107182707   21.943872920   22.263088949 XXXX 4      oc24    O  -0.675
O381    30.935263612   26.484693061   22.063460995 XXXX 4      oc23    O  -0.550
Si192   30.488656476   40.229133887   15.661715117 XXXX 4      sc4     Si  1.100
Si193   30.195285344   36.579098641   19.526536252 XXXX 4      sc4     Si  1.100
Si194   24.951098529   38.820778096    2.728639252 XXXX 4      sc4     Si  1.100
Si195   34.528884572   34.092890386   20.070555776 XXXX 4      sc4     Si  1.100
Si196   20.298531965   21.031084434    2.269371693 XXXX 4      sc4     Si  1.100
Si197   20.416776237   27.256033770    8.893787597 XXXX 4      sc4     Si  1.100
Si198   30.582186427   34.168421232   17.476853689 XXXX 4      sc4     Si  1.100
Si199   29.767142461   27.936843654    8.053118434 XXXX 4      sc4     Si  1.100
O382    25.600408758   24.571198035    2.519591911 XXXX 4      oc23    O  -0.550
O383    30.113246291   35.545371897   18.268827235 XXXX 4      oc23    O  -0.550
O384    19.190238216   21.162962748    1.089805309 XXXX 4      oc24    O  -0.675
O385    21.920798299   28.668200059   20.028203715 XXXX 4      oc23    O  -0.550
O386    26.385177980   22.841081086   14.124347131 XXXX 4      oc23    O  -0.550
O387    20.025721658   35.424389188   10.589540829 XXXX 4      oc23    O  -0.550
O388    30.716033041   28.599546878   20.292588192 XXXX 4      oc23    O  -0.550
O389    24.188465266   20.573881416   17.915487670 XXXX 4      oc23    O  -0.550
O390    31.122929056   32.982388148   18.399567306 XXXX 4      oc23    O  -0.550
O391    28.199543197   27.756490761   11.402713974 XXXX 4      oc23    O  -0.550
O392    35.784124607   35.920205915    2.830034853 XXXX 4      oc23    O  -0.550
O393    32.814981810   21.581050739   10.232755182 XXXX 4      oc23    O  -0.550
O394    23.838370139   39.403478140    1.687744980 XXXX 4      oc23    O  -0.550
O395    26.645044807   23.381645858    6.439638492 XXXX 4      oc23    O  -0.550
O396    26.785662929   20.914618511    5.521284719 XXXX 4      oc23    O  -0.550
O397    22.773616609   34.106976636    5.162776734 XXXX 4      oc23    O  -0.550
Si200   26.424281155   23.170715134    2.771227712 XXXX 4      sc4     Si  1.100
Si201   29.163550724   23.502253197    3.641367109 XXXX 4      sc4     Si  1.100
Si202   31.489349812   34.696554345    9.690907225 XXXX 4      sc4     Si  1.100
Si203   31.136959870   25.439653360    9.160556647 XXXX 4      sc4     Si  1.100
Si204   31.226296676   24.319458182    6.328093684 XXXX 4      sc4     Si  1.100
Si205   34.034785569   20.648086120    7.032330592 XXXX 4      sc4     Si  1.100
Si206   31.186828253   30.053065595   20.824993192 XXXX 4      sc4     Si  1.100
Si207   31.925112442   35.544542132    2.977961716 XXXX 4      sc4     Si  1.100
O398    30.503170283   25.598669437    5.506837626 XXXX 4      oc23    O  -0.550
O399    32.332534703   35.723902270    4.579213799 XXXX 4      oc23    O  -0.550
O400    34.066271398   36.064101006   12.338671229 XXXX 4      oc23    O  -0.550
O401    24.632210490   36.257586906   10.114692023 XXXX 4      oc23    O  -0.550
O402    28.864616766   20.645435070    3.144113840 XXXX 4      oc23    O  -0.550
O403    32.259766224   25.269618200   19.140005100 XXXX 4      oc23    O  -0.550
O404    28.852361731   36.613943834   20.416835725 XXXX 4      oc23    O  -0.550
O405    33.132017176   24.659903871    3.004946415 XXXX 4      oc23    O  -0.550
O406    36.375502159   27.819631930    3.705674755 XXXX 4      oc23    O  -0.550
O407    25.534253193   22.049771686    3.650644374 XXXX 4      oc23    O  -0.550
O408    31.223353064   28.819511175    4.652940831 XXXX 4      oc23    O  -0.550
O409    23.640667581   35.586306973    1.293446422 XXXX 4      oc24    O  -0.675
O410    32.559627720   37.403223274   13.665622728 XXXX 4      oc23    O  -0.550
O411    31.704711636   36.361623640   20.270608685 XXXX 4      oc23    O  -0.550
O412    27.229610001   32.983632796   16.077945338 XXXX 4      oc23    O  -0.550
Si208   24.915299408   39.507181485   10.479386493 XXXX 4      sc4     Si  1.100
Si209   20.538728258   33.830294440    7.602408741 XXXX 4      sc4     Si  1.100
Si210   31.210252191   38.169009990   13.636112918 XXXX 4      sc4     Si  1.100
Si211   27.601432584   22.116683842    6.109807054 XXXX 4      sc4     Si  1.100
Si212   34.696713679   36.574253406   15.801213923 XXXX 4      sc4     Si  1.100
Si213   30.088130677   39.340127059   11.191069408 XXXX 4      sc4     Si  1.100
Si214   27.871985321   28.024099871   15.468225102 XXXX 4      sc4     Si  1.100
Si215   24.961460042   21.791401121    9.583940058 XXXX 4      sc4     Si  1.100
O413    32.501735893   25.318754615   16.390041668 XXXX 4      oc23    O  -0.550
O414    31.050967968   28.731840075    7.414376753 XXXX 4      oc23    O  -0.550
O415    27.258313216   26.751225452   16.167750338 XXXX 4      oc23    O  -0.550
O416    27.044967466   33.171940074   13.504451875 XXXX 4      oc23    O  -0.550
O417    35.400650128   22.024829343   10.528089674 XXXX 4      oc23    O  -0.550
O418    30.608674124   41.150000235    5.974273625 XXXX 4      oc23    O  -0.550
O419    33.892473368   33.178568316   15.614381785 XXXX 4      oc23    O  -0.550
O420    29.318117960   31.364926624    8.811561271 XXXX 4      oc23    O  -0.550
O421    34.485746846   22.512941109   12.858563952 XXXX 4      oc23    O  -0.550
O422    35.692125334   40.923202724    6.537925152 XXXX 4      oc23    O  -0.550
O423    23.905777641   29.377515830   18.660552136 XXXX 4      oc23    O  -0.550
O424    38.606440063   23.701458550    2.651677207 XXXX 4      oc23    O  -0.550
O425    37.342573444   32.661871638    9.043178061 XXXX 4      oc23    O  -0.550
O426    27.365833131   37.650903205   18.824980515 XXXX 4      oc23    O  -0.550
O427    37.685692812   33.801415653   21.272502701 XXXX 4      oc23    O  -0.550
O428    21.110632319   24.834166881    3.629279787 XXXX 4      oc23    O  -0.550
O429    39.477886027   34.532028727   23.148196081 XXXX 4      oc24    O  -0.675
H1      34.542674097   22.914712298    0.530239360 XXXX 4      hoy     H   0.400
Si216   40.232700097   23.689402261   17.861378965 XXXX 4      sc4     Si  1.100
O430    25.274626661   38.957543628   22.261366611 XXXX 4      oc23    O  -0.550
O431    25.991704834   36.664823744   21.014705040 XXXX 4      oc23    O  -0.550
O432    34.094693469   39.384210798   23.829518570 XXXX 4      oc24    O  -0.675
H2      32.119708825   30.187150599    2.223811558 XXXX 4      hoy     H   0.400
O433    33.942303304   32.208481588   23.673777865 XXXX 4      oc24    O  -0.675
O434    27.300927099   32.539357815    2.750524480 XXXX 4      oc23    O  -0.550
O435    30.281075398   39.067089903    1.573482503 XXXX 4      oc24    O  -0.675
H3      34.775836962   33.822623416    0.318821925 XXXX 4      hoy     H   0.400
O436    37.106933141   24.968490039    1.000755943 XXXX 4      oc24    O  -0.675
H4      21.364987851   33.857168679   21.974060936 XXXX 4      hoy     H   0.400
H5      22.398811629   29.987036056   21.943199044 XXXX 4      hoy     H   0.400
O437    40.063861752   31.041093523    1.921321562 XXXX 4      oc24    O  -0.675
H6      35.501378049   26.005698980    2.585986564 XXXX 4      hoy     H   0.400
O438    37.178572234   30.901011400    0.323398770 XXXX 4      oc24    O  -0.675
O439    35.631977139   29.082561516    1.663830658 XXXX 4      oc23    O  -0.550
H7      24.437110035   31.016309606   22.121933520 XXXX 4      hoy     H   0.400
O440    21.268184017   39.931692747    0.858022828 XXXX 4      oc24    O  -0.675
O441    31.178523664   24.919143713    1.117568155 XXXX 4      oc24    O  -0.675
H8      23.103555911   29.375458287    2.475105039 XXXX 4      hoy     H   0.400
O442    33.088074463   26.929175484   23.483050064 XXXX 4      oc24    O  -0.675
O443    27.049283161   35.443987448    2.514540283 XXXX 4      oc23    O  -0.550
O444    28.020506740   36.883501410    0.654664550 XXXX 4      oc24    O  -0.675
O445    38.411479269   28.780771519   23.033484726 XXXX 4      oc24    O  -0.675
H9      29.396039416   39.424284107   20.989614756 XXXX 4      hoy     H   0.400
O446    29.615237692   32.528005344   23.320486144 XXXX 4      oc24    O  -0.675
O447    31.907695874   32.752192552   21.762792040 XXXX 4      oc23    O  -0.550
O448    23.799870104   27.216755754   19.260285909 XXXX 4      oc24    O  -0.675
O449    29.184917739   20.857441278    0.409166688 XXXX 4      oc24    O  -0.675
O450    27.125194695   22.259334285    1.656842807 XXXX 4      oc23    O  -0.550
H10     19.583044319   20.865078459    0.291738095 XXXX 4      hoy     H   0.400
O451    31.765225079   29.796848468   22.312594903 XXXX 4      oc24    O  -0.675
H11     38.775642244   34.329175656   23.738611288 XXXX 4      hoy     H   0.400
H12     33.177534773   31.974700976   24.167629046 XXXX 4      hoy     H   0.400
H13     31.006417720   38.788499121    1.045934047 XXXX 4      hoy     H   0.400
H14     37.961043557   25.080973304    0.631203740 XXXX 4      hoy     H   0.400
H15     39.421788139   31.401515107    1.337757790 XXXX 4      hoy     H   0.400
H16     37.212423608   30.158332345   -0.252358326 XXXX 4      hoy     H   0.400
H17     21.419143960   39.498436186    0.040174048 XXXX 4      hoy     H   0.400
H18     31.253336047   25.700892557    0.605329485 XXXX 4      hoy     H   0.400
H19     33.642765221   26.374123858   23.998902910 XXXX 4      hoy     H   0.400
H20     27.819019865   37.686015202    0.206943923 XXXX 4      hoy     H   0.400
H21     28.806439690   33.003770955   23.341713114 XXXX 4      hoy     H   0.400
H22     24.528372982   27.245075048   18.673885170 XXXX 4      hoy     H   0.400
H23     32.662153296   29.511234249   22.257394801 XXXX 4      hoy     H   0.400
Si217   24.932271431   37.432474962   22.011240671 XXXX 4      sc4     Si  1.100
O452    25.234230700   36.794919051   23.482459066 XXXX 4      oc24    O  -0.675
H24     24.551486556   36.170745018   23.651903361 XXXX 4      hoy     H   0.400
Si218   26.831823563   33.878603560    1.819264606 XXXX 4      sc4     Si  1.100
O453    27.526246740   33.763547744    0.369575434 XXXX 4      oc24    O  -0.675
H25     27.869975291   34.605189325    0.122019458 XXXX 4      hoy     H   0.400
O454    25.317521688   33.383698092    1.582075899 XXXX 4      oc23    O  -0.550
Si219   29.620358374   22.416073447   20.935902458 XXXX 4      sc4     Si  1.100
O455    29.330776691   23.318667677   22.214787506 XXXX 4      oc24    O  -0.675
H26     28.848942850   22.799688519   22.831234519 XXXX 4      hoy     H   0.400
O456    23.005871159   40.132016801   22.559722231 XXXX 4      oc24    O  -0.675
O457    39.362746364   22.977557682   19.050695413 XXXX 4      oc23    O  -0.550
O458    40.078615854   25.298247564   17.475201005 XXXX 4      oc23    O  -0.550
O459    22.575027363   25.620754523   20.798882327 XXXX 4      oc23    O  -0.550
O460    40.838279524   26.301895325   19.543368445 XXXX 4      oc23    O  -0.550
Si220   40.555269753   26.808153262   18.045590308 XXXX 4      sc4     Si  1.100
O461    39.417574432   27.964146875   17.981258740 XXXX 4      oc23    O  -0.550
Si221   39.319488492   22.040283718   20.447478985 XXXX 4      sc4     Si  1.100
Si222   24.088202255   24.978432402   20.938640750 XXXX 4      sc4     Si  1.100
O462    25.031568457   25.834500520   22.017426453 XXXX 4      oc24    O  -0.675
H27     25.911055584   25.509561167   21.992484592 XXXX 4      hoy     H   0.400
O463    39.983151530   22.569123118   21.888833675 XXXX 4      oc24    O  -0.675
H28     40.103178453   23.497604653   21.867255953 XXXX 4      hoy     H   0.400
O464    37.375388104   22.244171316   23.536072458 XXXX 4      oc24    O  -0.675
H29     38.269363557   22.487380727   23.369116309 XXXX 4      hoy     H   0.400
H30     36.670336779   24.871155155   21.498781343 XXXX 4      hoy     H   0.400
H31     29.161325169   30.641992987    4.891664464 XXXX 4      hoy     H   0.400
O465    24.514975456   31.134812523    2.864785550 XXXX 4      oc24    O  -0.675
H32     25.196847720   30.891763255    2.264667290 XXXX 4      hoy     H   0.400
H33     32.262156454   32.359282696    1.050238151 XXXX 4      hoy     H   0.400
H34     33.563731970   40.100106644   24.128461070 XXXX 4      hoy     H   0.400
H35     39.187652374   28.870477031   23.563933728 XXXX 4      hoy     H   0.400
H36     23.896105444   28.596026066   21.204169417 XXXX 4      hoy     H   0.400
H37     39.482939584   27.737207594    2.405846927 XXXX 4      hoy     H   0.400
H38     32.241389756   21.802770328   21.893995223 XXXX 4      hoy     H   0.400
H39     24.322051042   35.035345191    1.652767722 XXXX 4      hoy     H   0.400
H40     29.643809053   21.534247672   -0.035604651 XXXX 4      hoy     H   0.400
H41     23.030321325   40.778118558   23.281438802 XXXX 4      hoy     H   0.400
Si7      0.465458339   41.013150739   17.479473782 XXXX 5      sc4     Si  1.100
O13     15.045838714   -0.257180900    2.480756290 XXXX 5      oc24    O  -0.675
O30     16.797354823   41.130197003   17.320946942 XXXX 5      oc23    O  -0.550
O42      0.184618712   41.789472546    7.995180026 XXXX 5      oc23    O  -0.550
O57      4.505337932   41.450960281    5.480137169 XXXX 5      oc23    O  -0.550
O59      1.436173770   41.580912204   18.540033520 XXXX 5      oc23    O  -0.550
O115     6.569374267   40.959455555   18.854609228 XXXX 5      oc23    O  -0.550
O120    17.287743674   41.059471879    8.370622925 XXXX 5      oc23    O  -0.550
Si68     1.712362172   41.363872179   20.007900111 XXXX 5      sc4     Si  1.100
O152    10.973280153   41.434886239   15.751897229 XXXX 5      oc23    O  -0.550
Si83     5.643383783   41.351484972    4.378545969 XXXX 5      sc4     Si  1.100
O194     6.384167640   41.025456451   15.038750890 XXXX 5      oc23    O  -0.550
Si205   13.815753942   41.513209024    6.919086003 XXXX 5      sc4     Si  1.100
H1      15.086128268   -0.665918333    1.640912534 XXXX 5      hoy     H   0.400
H31      9.865355263    1.023258919   -0.162509583 XXXX 5      hoy     H   0.400
H32      0.576672712   -0.224035778    0.972164265 XXXX 5      hoy     H   0.400
Si7     20.678176145   41.039834106   17.252201181 XXXX 6      sc4     Si  1.100
O13     35.977273578   -0.373896245    3.544456059 XXXX 6      oc24    O  -0.675
O30     36.802152810   41.385792404   17.226798809 XXXX 6      oc23    O  -0.550
O42     19.832856234   40.854426067    7.997717800 XXXX 6      oc23    O  -0.550
O57     23.843209677   41.731232002    5.622469249 XXXX 6      oc23    O  -0.550
O59     21.614648288   41.352519709   18.406625514 XXXX 6      oc23    O  -0.550
O115    26.498501014   40.894323937   19.281014470 XXXX 6      oc23    O  -0.550
O120    37.829939386   41.100572414    8.160987401 XXXX 6      oc23    O  -0.550
Si68    21.669517206   41.187082831   19.944253820 XXXX 6      sc4     Si  1.100
O152    31.306603203   41.519625185   15.799844777 XXXX 6      oc23    O  -0.550
Si83    24.964886646   41.607118767    4.448544084 XXXX 6      sc4     Si  1.100
O194    26.702412790   41.254491363   15.446859811 XXXX 6      oc23    O  -0.550
Si205   34.270224025   41.471793196    6.984366510 XXXX 6      sc4     Si  1.100
H1      36.601349221   -0.261998559    4.228895618 XXXX 6      hoy     H   0.400
H31     30.391378162   -0.217973365    0.246757023 XXXX 6      hoy     H   0.400
H32     20.309218341   -0.003599423    1.040917512 XXXX 6      hoy     H   0.400
O260    39.632977106    3.001221325    4.978752541 XXXX 7      oc23    O  -0.550
O260    39.554081110   23.233483404    5.093770652 XXXX 8      oc23    O  -0.550
O459     1.240993782    3.436037664   18.867522540 XXXX 9      oc23    O  -0.550
Si220    1.087043728    4.415324041   20.227737390 XXXX 9      sc4     Si  1.100
O459     1.115179397   23.981827767   18.793795507 XXXX 10     oc23    O  -0.550
Si220    1.071635423   24.960948067   20.140458205 XXXX 10     sc4     Si  1.100
end
end
