# Stage 08: SMD starting-frame preparation and constant-velocity pulling.
# Select a section with: lmp -in <this-file> -var MODE <mode>

variable MODE index frames
if "${MODE} == frames" then "jump SELF mode_frames"
if "${MODE} == pull" then "jump SELF mode_pull"
print "invalid MODE ${MODE}"
quit 1

label mode_frames
# Prepare canonical starting frames for SMD pulling of the upper 25% of the
# polymer thickness.  Grip membership is defined once and is stored in every
# restart, so the reaction coordinate is identical across replicas.

variable data        index 09_interface_final.data
variable n_sub       index 11712
variable T           index 300.0
variable TDAMP       index 100.0
variable DT          index 1.0
variable K           index 100.0
variable SEED        index 73129
variable N_EQUIL     index 100000
variable N_SPACING   index 100000
variable N_FRAMES    index 10
variable SUB_XH      index 3
variable POLY_XH1    index 8
variable POLY_XH2    index 15
variable POLY_XH3    index 18
variable FIX_THICK   index 3.0
variable SURFACE_ZLO index 0.0
variable SURFACE_ZHI index 1.0
variable Z_GRIP_MIN  index 0.75

units           real
atom_style      full
boundary        p p f
pair_style      lj/class2/coul/long 12.0 12.0
pair_modify     table 0
pair_modify     mix sixthpower
kspace_style    pppm 1.0e-5
kspace_modify   slab 3.0
bond_style      class2
angle_style     class2
dihedral_style  class2
improper_style  class2
special_bonds   lj 0.0 0.0 1.0 coul 0.0 0.0 1.0
read_data       ${data}

neighbor        2.0 bin
neigh_modify    every 1 delay 0 check yes

group           substrate id 1:${n_sub}
group           polymer subtract all substrate
variable        zFixHi equal bound(substrate,zmin)+${FIX_THICK}
region          R_FIXED block INF INF INF INF INF ${zFixHi} units box
group           in_fixed region R_FIXED
group           frozen intersect substrate in_fixed
group           mobile subtract all frozen
velocity        frozen set 0.0 0.0 0.0
fix             FREEZE frozen setforce 0.0 0.0 0.0
fix             REFLECT all wall/reflect zlo EDGE zhi EDGE

# Geometrical upper quarter of the robust 5--95 mass-percent film envelope.
# The dilute coordinate tails are excluded when defining its thickness but all
# atoms above the resulting threshold belong to the grip.  Region groups are
# evaluated when this command is issued; `grip` is not dynamic.
variable        zPolyMin equal bound(polymer,zmin)
variable        zPolyMax equal bound(polymer,zmax)
region          R_GRIP block INF INF INF INF ${Z_GRIP_MIN} INF units box
group           in_grip region R_GRIP
group           grip intersect polymer in_grip
variable        Ngrip equal count(grip)
variable        Npolymer equal count(polymer)
variable        gripFraction equal v_Ngrip/v_Npolymer
variable        Mgrip equal mass(grip)
variable        z0 equal $(xcm(grip,z))

if "${Ngrip} < 1" then "print 'empty SMD grip'" "quit 1"

# Equilibrate with the same stationary collective-coordinate spring used at
# the start of the pull.  For a COM spring, the force must be distributed in
# proportion to atom mass; equal per-atom forces are not its gradient.
variable        zcm equal xcm(grip,z)
variable        fspr equal v_K*(v_z0-v_zcm)
variable        fatom atom v_fspr*mass/v_Mgrip
variable        uspr atom 0.5*v_K*(v_z0-v_zcm)^2*mass/v_Mgrip
fix             HOLD grip addforce 0.0 0.0 v_fatom energy v_uspr
fix_modify      HOLD energy yes

timestep        ${DT}
fix             XH all shake 1.0e-6 200 5000 b ${SUB_XH} ${POLY_XH1} ${POLY_XH2} ${POLY_XH3}
velocity        mobile create ${T} ${SEED} mom yes rot yes dist gaussian
fix             NVT mobile nvt temp ${T} ${T} ${TDAMP}
thermo          5000
thermo_style    custom step time temp pe ke etotal v_zcm v_fspr
thermo_modify   flush yes

print "grip_definition upper_25pct_of_5_95_mass_envelope surface_zlo_A ${SURFACE_ZLO} surface_zhi_A ${SURFACE_ZHI} z_poly_min_A ${zPolyMin} z_poly_max_A ${zPolyMax} z_grip_min_A ${Z_GRIP_MIN} z_tether0_A ${z0} n_grip ${Ngrip} n_polymer ${Npolymer} grip_atom_fraction ${gripFraction}" file grip_metadata.txt screen yes

# First allow the newly applied stationary spring and reassigned velocities to
# equilibrate.  Then make N_FRAMES starts separated by N_SPACING timesteps.
run             ${N_EQUIL}
reset_timestep  0
write_restart   frame_0.restart
variable        N_MORE equal (${N_FRAMES}-1)*${N_SPACING}
if "${N_FRAMES} > 1" then "restart ${N_SPACING} frame_*.restart" "run ${N_MORE}"

print "SMD_FRAMES_DONE replicas ${N_FRAMES} spacing_steps ${N_SPACING}"
jump SELF mode_end

label mode_pull
# Constant-velocity SMD pull of the fixed upper-25%-of-thickness grip prepared
# by this file's MODE=frames stage. The initial stationary spring and the moving
# spring have the same K and tether origin.

variable restart     index frame_0.restart
variable rep         index 1
variable n_sub       index 11712
variable T           index 300.0
variable TDAMP       index 100.0
variable DT          index 1.0
variable K           index 100.0
variable VEL         index 0.0005
variable Z0          index 100.0
variable N_PULL      index 120000
variable SUB_XH      index 3
variable POLY_XH1    index 8
variable POLY_XH2    index 15
variable POLY_XH3    index 18
variable FIX_THICK   index 3.0
variable PRINT_EVERY index 100
variable DUMP_EVERY  index 2000

read_restart    ${restart}

# A restart restores the long-range pair style but not an active solver.
kspace_style    pppm 1.0e-5
kspace_modify   slab 3.0
neighbor        2.0 bin
neigh_modify    every 1 delay 0 check yes

group           substrate id 1:${n_sub}
group           polymer subtract all substrate
variable        zFixHi equal bound(substrate,zmin)+${FIX_THICK}
region          R_FIXED block INF INF INF INF INF ${zFixHi} units box
group           in_fixed region R_FIXED
group           frozen intersect substrate in_fixed
group           mobile subtract all frozen
velocity        frozen set 0.0 0.0 0.0
fix             FREEZE frozen setforce 0.0 0.0 0.0
fix             REFLECT all wall/reflect zlo EDGE zhi EDGE

# `grip` is restored from the frame restart.  Its fixed bit membership is the
# same in all replicas even though atoms have moved during frame generation.
variable        Ngrip equal count(grip)
variable        Npolymer equal count(polymer)
variable        Mgrip equal mass(grip)
if "${Ngrip} < 1" then "print 'restart has no SMD grip group'" "quit 1"

timestep        ${DT}
fix             XH all shake 1.0e-6 200 5000 b ${SUB_XH} ${POLY_XH1} ${POLY_XH2} ${POLY_XH3}
fix             NVT mobile nvt temp ${T} ${T} ${TDAMP}

# U = 1/2 K [z_tether(t)-z_COM]^2.  Its group force is distributed by mass,
# which is the exact gradient of a centre-of-mass collective coordinate.
variable        step0 equal $(step)
variable        ztet equal ${Z0}+${VEL}*(step-v_step0)*dt
variable        zcm equal xcm(grip,z)
variable        target equal ${VEL}*(step-v_step0)*dt
variable        fspr equal ${K}*(v_ztet-v_zcm)
variable        fatom atom v_fspr*mass/v_Mgrip
variable        uspr atom 0.5*${K}*(v_ztet-v_zcm)^2*mass/v_Mgrip
fix             PULL grip addforce 0.0 0.0 v_fatom energy v_uspr
fix_modify      PULL energy yes

variable        tps equal (step-v_step0)*dt/1000.0
variable        sep equal xcm(polymer,z)-xcm(substrate,z)
variable        area equal lx*ly
thermo          1000
thermo_style    custom step time temp pe ke etotal v_target v_zcm v_fspr v_sep
thermo_modify   flush yes

fix             POUT all print ${PRINT_EVERY} "$(step),${tps},${target},${ztet},${zcm},${sep},${fspr},${area}" file pull_${rep}.csv screen no title "step,time_ps,pull_target_A,tether_z_A,grip_com_z_A,polymer_substrate_COM_separation_A,pull_force_z_kcal_mol_A,interface_area_A2"
dump            DP all custom ${DUMP_EVERY} pull_${rep}.lammpstrj id mol type q xu yu zu vx vy vz fx fy fz
dump_modify     DP sort id first yes

run             ${N_PULL}
print           "SMD_PULL_DONE replica ${rep} target_A ${target} grip_atoms ${Ngrip} polymer_atoms ${Npolymer}"
jump SELF mode_end

label mode_end
